Participant No.,Stimulus Orientation,Participant Response,Noise Level (Concentration of von Mises)
1,90,80,0.5
1,35,51.5,0.5
1,90,107,0.5
1,27,26,0.5
1,10,19,0.5
1,154,136,0.5
1,101,102,4
1,168,172,0.5
1,126,133,0.5
1,105,113.75,4
1,147,147,0.5
1,159,159,0.5
1,179,11.5,0.5
1,1,8.5,4
1,156,152,4
1,111,103,0.5
1,179,13.75,0.5
1,95,84.75,0.5
1,87,98,0.5
1,145,158,0.5
1,42,34.25,0.5
1,90,89,4
1,163,170,0.5
1,104,79,0.5
1,153,151,4
1,133,129,4
1,106,104.25,4
1,45,41,4
1,120,146,4
1,16,33,4
1,113,113.25,4
1,119,135,0.5
1,132,148.25,4
1,161,161.25,0.5
1,177,163.5,0.5
1,139,131,0.5
1,105,103.25,0.5
1,168,146.25,4
1,105,117.25,0.5
1,4,21.25,4
1,22,18,4
1,156,164,4
1,88,96,4
1,153,142,4
1,38,30.5,4
1,100,105.25,0.5
1,114,125,4
1,6,18,4
1,111,115.5,4
1,66,65.25,0.5
1,9,14,0.5
1,89,107.25,4
1,35,39.75,0.5
1,23,37,0.5
1,37,38.75,0.5
1,27,44,0.5
1,35,40,4
1,8,35,0.5
1,115,107.75,0.5
1,51,44,0.5
1,97,107,0.5
1,126,121,4
1,90,95,4
1,97,106.75,4
1,81,72,0.5
1,23,32.5,0.5
1,89,96,0.5
1,154,153.5,0.5
1,158,152.75,4
1,49,65.75,0.5
1,38,41,4
1,102,105,4
1,116,110.5,0.5
1,76,76,0.5
1,38,41,0.5
1,171,160.75,0.5
1,15,14.5,4
1,20,25.5,0.5
1,26,30.75,0.5
1,30,50.75,0.5
1,112,131,0.5
1,104,109.5,4
1,10,29,0.5
1,168,157,0.5
1,132,142,4
1,133,133.5,4
1,12,3.25,0.5
1,155,135.5,4
1,169,176,0.5
1,178,0.25,4
1,155,158.5,0.5
1,142,138,4
1,93,71.25,0.5
1,32,34,4
1,72,74.25,4
1,25,44.5,0.5
1,6,11.25,0.5
1,170,159,4
1,55,48.75,4
1,54,60.5,4
1,60,53,4
1,85,97,4
1,117,121,4
1,5,171.75,0.5
1,152,158,0.5
1,101,103.25,0.5
1,154,141.75,4
1,63,45,4
1,81,80.25,0.5
1,10,9,0.5
1,32,34.5,4
1,120,130.5,4
1,60,35.75,0.5
1,162,152,4
1,22,41,0.5
1,178,14,0.5
1,98,106.25,4
1,128,135.5,4
1,180,171.75,0.5
1,52,39,0.5
1,75,73.5,0.5
1,84,78,0.5
1,138,150,0.5
1,148,141.75,0.5
1,19,20,4
1,33,29.25,4
1,65,60,0.5
1,11,27.75,4
1,94,107.5,0.5
1,61,54.25,4
1,32,53.5,0.5
1,38,33.25,0.5
1,163,159.25,4
1,122,130.5,4
1,85,67,4
1,165,149.5,4
1,19,34,0.5
1,135,136.75,0.5
1,133,122.5,4
1,102,71,0.5
1,34,28.75,0.5
1,108,118,0.5
1,54,40.75,4
1,25,36,4
1,39,23.5,4
1,162,147.75,4
1,13,33,0.5
1,44,43,4
1,10,24,0.5
1,80,71,4
1,3,11.25,4
1,162,161,0.5
1,36,29,4
1,17,22,4
1,56,57.5,4
1,83,69.5,0.5
1,19,31.25,0.5
1,180,15,4
1,60,54,4
1,54,57,0.5
1,12,20,4
1,54,72,0.5
1,9,12,4
1,91,107,0.5
1,138,130,0.5
1,114,121,4
1,17,25,0.5
1,15,20,4
1,140,133,4
1,163,137.5,4
1,97,80,0.5
1,20,39.25,4
1,149,142.5,4
1,61,68,4
1,53,68,0.5
1,135,141,4
1,2,12,4
1,9,10.5,0.5
1,121,126.25,4
1,109,113.75,0.5
1,95,100.25,4
1,132,142.5,0.5
1,128,147,4
1,141,138.25,4
1,52,34,4
1,125,127.5,4
1,101,107.5,4
1,72,61,4
1,12,11.25,0.5
1,141,148.5,4
1,61,61.25,4
1,110,110.5,0.5
1,134,152,0.5
1,19,23,0.5
1,24,27.5,4
1,99,100.25,0.5
1,88,77,4
1,161,145,0.5
1,144,155.75,0.5
1,133,134,0.5
1,10,18.5,0.5
1,14,23.25,0.5
1,16,23.75,0.5
1,144,142.25,0.5
1,170,159.25,4
1,124,122,0.5
1,24,31,4
1,131,136.5,0.5
1,20,26.25,4
1,22,23.75,4
1,116,112.5,0.5
1,60,63,4
1,118,114,0.5
1,135,123,0.5
1,105,115,4
1,134,120,4
1,43,40,4
1,133,123,4
1,175,166,4
1,157,150,0.5
1,16,24.25,0.5
1,66,48,4
1,67,54,4
1,124,122,4
1,108,109,0.5
1,143,140,4
1,67,60,4
1,38,58,0.5
1,16,23,4
1,139,124.75,0.5
1,38,44.5,0.5
1,70,63,0.5
1,100,116,0.5
1,42,42.25,4
1,116,101,0.5
1,88,98.5,0.5
1,28,33,0.5
1,141,145,4
1,19,27,4
1,53,32,0.5
1,43,33.5,0.5
1,96,113,0.5
1,17,30.25,4
1,73,73,4
1,19,30,0.5
1,21,26.5,4
1,142,150,0.5
1,53,45.5,4
1,109,112,0.5
1,174,165.25,4
1,78,72.5,4
1,126,130.5,4
1,137,131,4
1,78,74,4
1,118,116.5,0.5
1,20,27.75,4
1,169,151,0.5
1,34,36,4
1,48,52,0.5
1,144,134.25,0.5
1,88,89,0.5
1,139,147,4
1,72,63.25,4
1,50,40.25,0.5
1,7,18,4
1,122,132,0.5
1,78,67,4
1,82,77.5,4
1,110,118,4
1,11,26,0.5
1,57,50,4
1,140,150,4
1,126,134,0.5
1,23,25,0.5
1,24,37.25,4
1,17,26.75,0.5
1,2,11.75,0.5
1,77,73,4
1,119,118.5,0.5
1,131,144,4
1,96,109,0.5
1,20,31,0.5
1,114,120,4
1,23,26.75,0.5
1,25,28.25,4
1,18,24,0.5
1,26,16.75,4
1,31,29,4
1,36,32.75,4
1,58,73,4
1,57,69,0.5
1,40,42.25,0.5
1,46,50,4
1,161,138.5,4
1,127,137.25,4
1,101,107,4
1,34,53.25,4
1,39,51.75,4
1,14,38.25,0.5
1,165,149.75,0.5
1,128,117,0.5
1,101,107,0.5
1,57,38.25,4
1,30,39.5,4
1,113,118,4
1,178,150,4
1,31,34,0.5
1,47,40,0.5
1,72,71,4
1,14,16.25,0.5
1,124,124,4
1,73,63,4
1,177,146.75,0.5
1,73,71.25,0.5
1,112,112.5,4
1,28,35.5,0.5
1,69,69.5,0.5
1,30,54.75,0.5
1,137,144,0.5
1,157,152,4
1,64,71.5,0.5
1,124,120,4
1,53,60,4
1,96,109.5,0.5
1,150,155,4
1,108,104,0.5
1,61,66,4
1,54,39.5,0.5
1,82,76,0.5
1,77,75.25,0.5
1,65,62.5,0.5
1,101,108.75,0.5
1,134,120.25,4
1,77,74.75,4
1,78,112,0.5
1,23,29.25,0.5
1,5,14,4
1,53,67,4
1,58,69.25,0.5
1,118,119.75,4
1,173,168,4
1,169,13,0.5
1,83,80,4
1,44,35.25,4
1,138,138,4
1,137,135,0.5
1,134,137.25,4
1,134,128.75,4
1,20,36,4
1,123,135,4
1,84,80,4
1,39,40,4
1,18,29,4
1,149,134.5,0.5
1,32,29.75,4
1,30,41,0.5
1,120,116.75,0.5
1,161,136.25,4
1,93,107.25,4
1,127,135,4
1,28,29,0.5
1,172,162.25,4
1,98,72.5,0.5
1,123,119,0.5
1,7,24.75,0.5
1,146,159,0.5
1,135,148,4
1,22,55,0.5
1,95,105,4
1,59,54,4
1,99,104,4
1,72,51.75,4
1,75,59.5,4
1,33,38,4
1,46,49,4
1,4,16,0.5
1,167,155.25,0.5
1,118,122,4
1,168,155,0.5
1,30,39,0.5
1,166,159,4
1,144,146,4
1,104,103.25,4
1,80,61.25,4
1,47,56,4
1,136,139.75,4
1,42,39,0.5
1,12,29,0.5
1,139,151,0.5
1,121,113,4
1,129,139,4
1,116,149,0.5
1,76,74,0.5
1,71,83,0.5
1,147,162.25,0.5
1,58,57.5,0.5
1,147,138,4
1,143,131.75,0.5
1,154,138,0.5
1,92,107,4
1,115,162,4
1,172,162,4
1,80,71.25,0.5
1,11,164.75,4
1,157,154,4
1,114,105.25,0.5
1,64,68,0.5
1,180,7.75,0.5
1,41,48,0.5
1,118,126,0.5
1,109,113.25,0.5
1,70,61,4
1,26,32,4
1,5,23,4
1,76,75,0.5
1,34,38,4
1,131,138,4
1,67,68.75,4
1,152,150,4
1,133,139,4
1,103,102,0.5
1,32,38,4
1,173,152,4
1,48,49,0.5
1,167,150,4
1,41,29,4
1,68,72.25,0.5
1,16,29,4
1,116,105,4
1,33,25,0.5
1,9,17.75,4
1,131,149,0.5
1,63,53,4
1,119,127.75,4
1,70,54.25,0.5
1,113,131.75,0.5
1,4,5,0.5
1,164,12,0.5
1,145,129,4
1,135,134,4
1,147,161,4
1,69,61,4
1,112,110.25,0.5
1,104,105,0.5
1,96,101.5,0.5
1,50,70,4
1,45,74,0.5
1,82,78,0.5
1,41,51,0.5
1,145,140,4
1,178,178,0.5
1,6,17,0.5
1,97,99,4
1,16,23.5,4
1,145,153.75,4
1,179,159,0.5
1,13,25.5,0.5
1,170,163,0.5
1,4,6.25,0.5
1,124,121,4
1,142,147,0.5
1,97,98,4
1,160,158.25,0.5
1,162,154,0.5
1,113,130,0.5
1,25,29.25,4
1,40,34,0.5
1,33,43,0.5
1,8,27,0.5
1,20,33.25,4
1,111,114.75,0.5
1,170,173,0.5
1,64,67,0.5
1,74,59,4
1,178,1,4
1,171,174,0.5
1,122,123,0.5
1,178,5,4
1,139,147,4
1,61,55.25,4
1,120,124,0.5
1,44,38.25,4
1,54,63.25,4
1,123,124,0.5
1,96,104.5,4
1,75,38,0.5
1,109,120,0.5
1,136,145.75,4
1,106,104.5,0.5
1,100,106,4
1,106,113,4
1,93,99,4
1,15,18.5,0.5
1,130,135,4
1,180,9.5,0.5
1,64,66,4
1,175,3.5,0.5
1,63,68.25,0.5
1,160,172.5,0.5
1,82,63.25,4
1,75,71,4
1,40,31,0.5
1,23,16,0.5
1,56,47,4
1,131,124,0.5
1,141,139,4
1,125,105,0.5
1,2,17.25,4
1,152,143,4
1,167,12,0.5
1,139,126,4
1,8,33,0.5
1,69,57,4
1,127,134,4
1,132,140.75,4
1,41,32.75,4
1,49,51.5,4
1,122,130.25,4
1,86,99,0.5
1,113,115.25,4
1,43,75.75,0.5
1,32,38,0.5
1,150,144.5,4
1,139,154,0.5
1,169,162,4
1,20,33.25,4
1,33,31,4
1,18,33,0.5
1,89,104,0.5
1,35,27,4
1,162,148,4
1,18,28,0.5
1,8,21,0.5
1,101,100.75,4
1,140,159,0.5
1,57,59,0.5
1,33,42,0.5
1,62,54,0.5
1,38,51,4
1,92,70,0.5
1,164,159,4
1,114,115,4
1,19,27,4
1,71,69,0.5
1,10,15,4
1,91,91,4
1,78,72,0.5
1,180,23,0.5
1,147,143,0.5
1,88,81,4
1,162,162,4
1,25,33,0.5
1,71,75,0.5
1,167,160,0.5
1,166,161.75,4
1,129,137.75,4
1,112,155.5,4
1,62,67,4
1,169,163.5,4
1,23,38,4
1,132,138,4
1,117,117,0.5
1,150,148,4
1,72,69,0.5
1,135,109,0.5
1,151,150,4
1,59,69.75,0.5
1,100,116,0.5
1,177,10.25,0.5
1,99,101,4
1,60,65,0.5
1,112,113,0.5
1,65,59,4
1,137,125,0.5
1,75,73.75,0.5
1,89,72,0.5
1,126,135,0.5
1,176,160.75,0.5
1,59,45,0.5
1,151,143,0.5
1,134,145,0.5
1,172,166,4
1,6,11,0.5
1,65,45,0.5
1,120,117,0.5
1,51,51,4
1,42,49.75,0.5
1,129,129,4
1,113,131,0.5
1,107,108,0.5
1,119,144,0.5
1,9,27,4
1,63,50,4
1,82,69.5,4
1,44,50,4
1,129,126.75,4
1,155,153,4
1,51,57,0.5
1,132,142,4
1,25,39.5,0.5
1,151,150.25,4
1,25,39,4
1,106,113.25,0.5
1,66,61,4
1,146,144,0.5
1,91,81.25,4
1,89,77,0.5
1,158,150,0.5
1,64,68.75,0.5
1,81,111.25,0.5
1,174,175.25,4
1,8,26.25,0.5
1,176,167,4
1,35,35.75,4
1,121,131.25,4
1,106,138,0.5
1,122,131,0.5
1,65,62,0.5
1,112,118,0.5
1,147,134,4
1,4,173,0.5
1,16,34,4
1,176,178,0.5
1,118,114,0.5
1,42,40,0.5
1,73,76.25,0.5
1,22,30,4
1,49,47,4
1,47,39,0.5
1,60,55,4
1,28,28,0.5
1,63,28,0.5
1,22,24.25,0.5
1,160,168,0.5
1,17,34,0.5
1,168,164,4
1,72,77,4
1,9,25,0.5
1,62,62,0.5
1,133,132.25,0.5
1,144,136,0.5
1,99,98,0.5
1,124,116,4
1,161,161,4
1,10,23.75,4
1,55,50.5,0.5
1,9,11,4
1,36,34,0.5
1,130,143,4
1,130,130,0.5
1,159,153,4
1,105,106,4
1,13,21.5,4
1,167,157,0.5
1,145,142,0.5
1,52,52,0.5
1,98,115,4
1,178,156.5,4
1,129,107,4
1,152,137,4
1,78,74.5,0.5
1,85,64,0.5
1,101,113,4
1,49,27,0.5
1,135,128,4
1,91,83.25,4
1,117,105.25,4
1,56,44,0.5
1,25,32.25,4
1,86,94.75,4
1,66,55.5,4
1,142,149.25,0.5
1,141,153,4
1,121,116,0.5
1,25,29,4
1,4,14.25,0.5
1,101,110,4
1,55,56,0.5
1,170,170.25,0.5
1,177,159.75,0.5
1,52,36,0.5
1,145,155,0.5
1,162,165,0.5
1,108,114,4
1,160,158,0.5
1,170,153,4
1,99,104.5,0.5
1,132,139.25,0.5
1,104,116,0.5
1,5,20,4
1,81,74,0.5
1,117,118,4
1,94,105.75,4
1,68,77,0.5
1,169,165,0.5
1,150,145,0.5
1,153,155,0.5
1,68,60,4
1,107,106.75,4
1,158,160,4
1,169,162.75,4
1,121,134,0.5
1,38,51,0.5
1,118,121,4
1,13,18.75,4
1,74,71.5,4
1,121,118.75,4
1,169,165,4
1,146,156,0.5
1,88,68,0.5
1,137,140,4
1,76,71.5,4
1,175,176,4
1,178,176.25,0.5
1,156,169,0.5
1,70,76,0.5
1,82,74.5,4
1,45,51,0.5
1,142,146,4
1,159,153.75,4
1,165,145,0.5
1,101,108.5,0.5
1,108,106.25,4
1,27,36.75,4
1,162,161.5,0.5
1,82,80,4
1,38,37,4
1,162,158.25,0.5
1,138,144.75,4
1,159,151,0.5
1,52,50.5,4
1,122,122.75,4
1,120,132,4
1,23,32,0.5
1,74,69,4
1,50,54.25,0.5
1,130,128,0.5
1,52,50.5,4
1,162,145,4
1,149,140.75,0.5
1,71,70.5,4
1,90,99,4
1,126,125.5,0.5
1,151,151.5,0.5
1,110,105,0.5
1,104,101,4
1,59,58.5,4
1,83,86,4
1,129,145,0.5
1,160,151,0.5
1,130,146,4
1,4,15.5,4
1,122,133.5,4
1,79,74.75,4
1,79,72,0.5
1,22,12.25,0.5
1,147,158,0.5
1,59,55,4
1,45,52.25,4
1,62,73.5,0.5
1,68,58,4
1,99,119,0.5
1,102,102.75,4
1,72,66.25,4
1,72,72,4
1,93,108.75,4
1,119,144,0.5
1,172,162,4
1,131,119.5,0.5
1,73,60.75,0.5
1,150,139,4
1,25,24,0.5
1,11,23.75,4
1,16,18,0.5
1,30,22.5,0.5
1,59,55,0.5
1,55,53,0.5
1,3,15,4
1,98,107,0.5
1,18,21.75,4
1,27,28.75,0.5
1,114,115,4
1,155,145,4
1,176,163,0.5
1,103,103,4
1,180,172.25,0.5
1,100,66,0.5
1,93,113,4
1,60,65,0.5
1,78,52,4
1,89,82.25,4
1,13,17,0.5
1,160,159,0.5
1,12,16,0.5
1,79,79.75,0.5
1,149,146.5,4
1,72,79,4
1,111,115.25,4
1,148,146.5,4
1,160,152.5,0.5
1,168,154,4
1,35,33,4
1,47,41,0.5
1,162,156,0.5
1,107,106.75,0.5
1,91,118,4
1,111,120.5,4
1,148,153.75,0.5
1,96,100.75,4
1,37,36,0.5
1,82,68.75,4
1,78,72.25,4
1,174,8,4
1,112,119.5,0.5
1,126,112,0.5
1,130,132,0.5
1,63,55,4
1,94,111.75,0.5
1,101,109.75,0.5
1,29,35,4
1,102,114,0.5
2,97,96,0.5
2,32,50,4
2,45,43.25,4
2,115,113.5,4
2,154,146.5,0.5
2,30,29.25,4
2,60,33,0.5
2,72,67,4
2,146,148.75,0.5
2,96,109.75,0.5
2,44,38.75,0.5
2,147,137.25,0.5
2,8,26.25,0.5
2,118,116,4
2,35,40,4
2,126,107.25,0.5
2,150,141.5,0.5
2,24,30.25,0.5
2,158,146.25,0.5
2,71,67.75,4
2,37,35,4
2,21,26.75,4
2,157,148,0.5
2,59,72,0.5
2,51,49.5,0.5
2,72,54.25,4
2,65,67.25,4
2,116,125.75,0.5
2,172,160.75,0.5
2,78,99,0.5
2,124,116.5,4
2,121,129.25,0.5
2,170,160,0.5
2,48,47,0.5
2,60,47.5,4
2,42,44.25,0.5
2,46,47.5,4
2,156,140.75,0.5
2,41,43,4
2,29,33.5,0.5
2,78,54,0.5
2,171,155.5,0.5
2,78,77,0.5
2,81,84,0.5
2,100,102,4
2,139,134.25,4
2,150,144,4
2,86,102,0.5
2,78,78,0.5
2,60,78.5,0.5
2,106,109,4
2,139,117.5,4
2,95,105.75,4
2,45,49.75,0.5
2,111,122,0.5
2,8,21.75,4
2,120,129,4
2,103,108.25,4
2,20,30,0.5
2,57,50,0.5
2,175,165,4
2,129,127.25,4
2,117,137.5,0.5
2,101,79,4
2,28,37.75,0.5
2,46,44.25,0.5
2,82,70.25,0.5
2,24,21,4
2,108,115,0.5
2,147,141,4
2,133,147,0.5
2,117,118,0.5
2,52,63.25,0.5
2,20,40,0.5
2,34,36.75,4
2,130,127.75,4
2,19,24,0.5
2,116,114,4
2,62,52.5,4
2,11,20,4
2,45,46,4
2,11,27.5,0.5
2,175,162.25,4
2,66,54,4
2,176,161,4
2,139,140.25,4
2,71,64.25,4
2,66,68,0.5
2,36,46,4
2,80,77.5,0.5
2,76,51.75,0.5
2,105,116,0.5
2,122,130,0.5
2,63,69,4
2,108,104.25,0.5
2,111,83.25,0.5
2,65,79,0.5
2,105,100,4
2,27,30.75,4
2,171,159.75,4
2,156,155.5,0.5
2,179,164,0.5
2,99,97.25,0.5
2,89,101,0.5
2,138,110.25,0.5
2,124,113.25,4
2,154,145.25,0.5
2,39,45.5,0.5
2,130,117,4
2,3,165,0.5
2,161,151,4
2,83,63,0.5
2,140,144.75,4
2,163,157.5,0.5
2,147,144,4
2,15,19,4
2,128,124.25,0.5
2,84,83.75,0.5
2,29,42,0.5
2,157,133.25,4
2,21,32.25,0.5
2,91,91.75,4
2,64,59,4
2,172,171,0.5
2,10,22.75,0.5
2,72,79.25,0.5
2,68,82.25,0.5
2,113,106.75,4
2,69,79.5,0.5
2,45,35,4
2,16,15,4
2,138,139,0.5
2,72,116,0.5
2,73,88,0.5
2,5,19,0.5
2,121,113.5,0.5
2,172,164,4
2,179,163,0.5
2,87,69,0.5
2,13,19.5,4
2,92,120,0.5
2,159,150,4
2,179,172,4
2,133,124.75,0.5
2,176,173,0.5
2,79,59,4
2,148,138.75,4
2,37,41.75,0.5
2,122,124,4
2,38,42.5,4
2,42,43.5,4
2,134,127.25,4
2,129,123.25,4
2,36,24.75,0.5
2,155,155,4
2,166,159,4
2,129,117,4
2,44,55,4
2,8,20,4
2,129,125.25,4
2,170,21,0.5
2,161,145.25,4
2,12,24.75,4
2,173,168.75,0.5
2,91,101.25,0.5
2,154,154.5,0.5
2,40,37.75,0.5
2,95,89,4
2,167,170,0.5
2,155,160.5,0.5
2,139,132,0.5
2,15,29.25,0.5
2,39,23,4
2,19,23.5,4
2,101,111,4
2,51,41,4
2,9,21,0.5
2,36,25.75,4
2,66,51.25,0.5
2,145,151,0.5
2,43,83,0.5
2,160,139,4
2,94,93.75,4
2,45,43,4
2,169,158,0.5
2,15,174,0.5
2,45,34.75,4
2,141,159.25,0.5
2,79,173,4
2,36,39,4
2,121,117,0.5
2,53,54,0.5
2,71,71.75,0.5
2,25,26,0.5
2,125,122.25,4
2,52,61.75,4
2,38,38,4
2,139,124.25,0.5
2,180,171.25,4
2,73,66.75,0.5
2,23,25.25,0.5
2,86,100.5,4
2,160,157,0.5
2,171,159.25,4
2,118,106,0.5
2,25,29,4
2,51,38.25,4
2,170,162.5,4
2,16,26.75,4
2,7,24.25,4
2,151,142.75,0.5
2,137,127,4
2,37,50.5,0.5
2,40,95,0.5
2,129,107.25,0.5
2,13,19.75,4
2,11,22.5,4
2,23,23,0.5
2,154,154.75,0.5
2,57,30.5,4
2,105,114.5,0.5
2,145,123.25,4
2,71,67.5,0.5
2,159,145.5,4
2,93,80.25,0.5
2,8,11,0.5
2,149,149,0.5
2,175,166,4
2,28,25,0.5
2,44,35.25,0.5
2,92,104.25,4
2,117,107,0.5
2,43,35,4
2,169,145,0.5
2,48,32.75,0.5
2,41,39.25,0.5
2,147,130.5,4
2,52,39,0.5
2,33,14,0.5
2,55,48.5,4
2,98,96.25,0.5
2,22,36,0.5
2,9,14.5,0.5
2,128,126.25,4
2,57,55.5,4
2,2,15.25,4
2,173,160.75,4
2,39,26.5,0.5
2,49,66,0.5
2,84,101,0.5
2,109,107,4
2,82,104.75,0.5
2,12,20.5,4
2,23,29.75,0.5
2,44,39.75,4
2,124,110,0.5
2,68,105,0.5
2,161,142.5,4
2,8,20.25,0.5
2,139,131.75,4
2,159,138.5,4
2,146,135.75,4
2,98,109,4
2,130,117.75,4
2,90,107,0.5
2,158,151.25,4
2,153,148,0.5
2,144,139,0.5
2,37,48,0.5
2,47,48.5,0.5
2,115,111.5,0.5
2,94,111.5,0.5
2,151,146,4
2,38,38.5,4
2,131,134.5,0.5
2,43,41.25,4
2,144,138.25,4
2,106,105,0.5
2,127,115,4
2,4,20,4
2,107,108.75,4
2,130,130.5,4
2,97,108,4
2,45,36,4
2,118,106,0.5
2,40,43,0.5
2,15,29,4
2,6,10,0.5
2,94,96,0.5
2,170,163,4
2,128,128,4
2,129,119,0.5
2,95,106.25,4
2,17,21.25,4
2,42,33,4
2,22,25,0.5
2,96,103,0.5
2,51,70.5,0.5
2,111,98.5,0.5
2,107,118,4
2,136,114,0.5
2,107,104,0.5
2,159,154.75,4
2,166,157,4
2,98,103,4
2,27,78,0.5
2,157,158,0.5
2,163,157.75,4
2,39,33,4
2,24,21,4
2,42,41.25,4
2,62,49,0.5
2,122,119.75,4
2,162,153.25,4
2,149,148.25,0.5
2,129,127.5,0.5
2,50,43.25,4
2,54,79.25,0.5
2,132,109,0.5
2,87,79.25,0.5
2,72,80,0.5
2,69,77.25,0.5
2,67,62,4
2,87,81.5,0.5
2,20,32,4
2,82,74.5,0.5
2,23,30.75,4
2,7,22.25,4
2,71,79,0.5
2,17,21,4
2,159,143.75,4
2,68,70.5,0.5
2,149,131.5,4
2,96,105.75,4
2,11,14.75,0.5
2,77,78.25,0.5
2,68,29,0.5
2,11,8,0.5
2,174,163.25,0.5
2,114,108,0.5
2,174,169.75,4
2,14,16,0.5
2,150,168.5,0.5
2,165,159.25,0.5
2,104,112.5,4
2,156,147,4
2,52,36.5,0.5
2,12,21.25,0.5
2,60,48,4
2,141,126.75,0.5
2,8,18,4
2,77,71,4
2,17,27,0.5
2,175,156.5,4
2,48,50.5,4
2,175,159.5,0.5
2,74,57.5,0.5
2,58,67.25,0.5
2,21,17,0.5
2,127,126.25,4
2,85,104.5,0.5
2,151,141.75,0.5
2,68,44.75,4
2,155,146,4
2,175,173,4
2,68,78,0.5
2,45,52,4
2,39,68,0.5
2,102,102,0.5
2,146,141,0.5
2,78,71,4
2,7,15.25,0.5
2,95,110,0.5
2,79,101.25,0.5
2,122,116.25,0.5
2,1,17.25,4
2,99,99.75,4
2,88,95,4
2,59,47.5,0.5
2,125,130,4
2,38,35,0.5
2,130,128.5,0.5
2,90,94.25,4
2,86,81,0.5
2,124,125,4
2,79,73,4
2,38,49,0.5
2,32,164,0.5
2,69,117,0.5
2,121,118,0.5
2,6,29,4
2,28,28,0.5
2,23,28,4
2,156,144.25,0.5
2,124,119,0.5
2,17,30,0.5
2,138,113,4
2,107,104,0.5
2,2,12,4
2,126,105,0.5
2,45,35,0.5
2,16,19,4
2,38,27,0.5
2,63,59,4
2,153,143,4
2,138,132,0.5
2,52,44,0.5
2,113,111.25,0.5
2,163,151.75,0.5
2,114,115,4
2,15,24,4
2,75,28,0.5
2,87,87,4
2,146,63,0.5
2,114,117,4
2,120,104,0.5
2,114,114.75,4
2,6,13.75,4
2,126,122,0.5
2,118,127.75,4
2,10,25.5,0.5
2,99,106,0.5
2,149,136,4
2,74,81.25,0.5
2,78,68.25,4
2,81,99,4
2,169,159.75,0.5
2,74,65,4
2,177,159,4
2,163,148,4
2,172,156,4
2,28,20,0.5
2,156,150,4
2,125,121,4
2,114,118,4
2,14,19,0.5
2,180,171.75,4
2,148,131,4
2,24,27,4
2,100,101,4
2,121,115,0.5
2,73,71.5,0.5
2,61,43,4
2,89,96.5,0.5
2,145,108,0.5
2,162,155.25,4
2,55,42.25,4
2,68,63,4
2,139,129,0.5
2,59,55,0.5
2,170,168.25,0.5
2,9,14,4
2,135,101.5,0.5
2,2,166,0.5
2,60,82.25,0.5
2,21,26.5,4
2,50,47.25,4
2,134,126.75,0.5
2,75,60.75,4
2,10,25.5,4
2,77,104.25,0.5
2,172,14.25,0.5
2,120,104.25,0.5
2,51,64,0.5
2,139,125,4
2,95,101.5,4
2,26,35.5,4
2,87,99,4
2,46,52.75,4
2,127,125,4
2,164,157.25,4
2,166,159,4
2,94,84.5,4
2,79,81,4
2,28,28.5,4
2,115,139,0.5
2,94,114.5,0.5
2,15,26,4
2,10,16,4
2,32,33,0.5
2,76,65,0.5
2,24,31,4
2,167,162.5,4
2,174,158,4
2,32,37.5,4
2,6,11,4
2,166,162,0.5
2,112,103,0.5
2,66,76,4
2,160,141,0.5
2,150,138,0.5
2,174,166.75,4
2,51,57,4
2,73,76,4
2,109,110,4
2,95,75.25,0.5
2,19,26.5,0.5
2,51,47.5,4
2,150,153.75,0.5
2,160,168,0.5
2,106,119,0.5
2,153,169.75,0.5
2,40,20.75,4
2,16,16.25,0.5
2,131,139.75,0.5
2,76,78,0.5
2,63,68.25,4
2,27,39.5,0.5
2,80,72.25,0.5
2,76,75.75,0.5
2,4,18.5,0.5
2,135,135.25,4
2,25,87,0.5
2,9,25,4
2,151,146.75,0.5
2,157,145,4
2,106,100.25,0.5
2,53,51,4
2,174,165,0.5
2,144,151,0.5
2,52,59,0.5
2,65,59.75,0.5
2,136,132.5,4
2,42,44.5,0.5
2,132,129,4
2,32,44.5,4
2,14,25.75,4
2,24,17.75,0.5
2,168,99,0.5
2,81,82.5,4
2,17,175,0.5
2,60,73,4
2,79,93.5,0.5
2,53,55.75,4
2,105,114.75,4
2,69,48,0.5
2,89,99,0.5
2,120,127,4
2,20,16,0.5
2,166,157,4
2,114,151,4
2,24,28,4
2,77,59,4
2,42,33,4
2,137,123.25,0.5
2,63,72.25,0.5
2,135,145,4
2,92,95.75,4
2,7,19.75,4
2,113,106.25,4
2,28,33,0.5
2,31,41.5,4
2,163,151.25,0.5
2,44,54,0.5
2,7,23,0.5
2,121,121,0.5
2,150,136,4
2,173,157.75,4
2,66,69.5,4
2,110,104.5,0.5
2,30,75.75,0.5
2,129,131.5,4
2,123,120,0.5
2,146,143,0.5
2,84,75,4
2,1,11.5,4
2,93,98.25,4
2,14,38,0.5
2,165,150.5,4
2,6,15,4
2,162,159.5,0.5
2,86,82.5,0.5
2,10,18.5,4
2,25,34.25,4
2,158,143.75,4
2,90,90,4
2,142,131,0.5
2,29,35,4
2,21,34.25,0.5
2,128,123.75,4
2,43,48.5,4
2,147,143,0.5
2,18,24,4
2,120,102,0.5
2,179,23,0.5
2,79,82,0.5
2,63,63,4
2,165,166,4
2,110,100,4
2,171,160.5,0.5
2,77,70,4
2,27,22,4
2,101,112,4
2,146,140,0.5
2,30,23,0.5
2,96,101.25,4
2,1,8.5,4
2,61,66,4
2,108,111,4
2,173,167,0.5
2,169,153,4
2,21,28,0.5
2,110,115.5,4
2,138,138.75,0.5
2,150,146,4
2,27,43.75,0.5
2,175,154,0.5
2,157,164,0.5
2,174,162.5,4
2,107,100,4
2,31,19.5,4
2,3,13.75,0.5
2,62,56,4
2,61,65,4
2,135,141,0.5
2,26,22,0.5
2,176,168,4
2,54,48,4
2,175,170,0.5
2,110,117,0.5
2,135,120,0.5
2,110,120,4
2,135,122,4
2,45,75,0.5
2,27,26,0.5
2,108,107,4
2,139,134,4
2,65,44,0.5
2,119,122,4
2,38,51,4
2,29,44,4
2,93,53,0.5
2,119,112.5,4
2,131,125,4
2,145,147,0.5
2,55,51,4
2,10,16,4
2,109,101,4
2,11,17,4
2,179,24,0.5
2,68,69,4
2,148,147,4
2,79,67.5,4
2,17,28,4
2,102,114.25,4
2,32,38,0.5
2,15,10.75,0.5
2,15,15,0.5
2,6,9.5,4
2,67,49,0.5
2,52,61,4
2,47,49,4
2,136,131.25,0.5
2,176,7,0.5
2,14,12.75,0.5
2,56,50,4
2,21,28.5,4
2,167,143,0.5
2,38,36,4
2,105,125,0.5
2,158,140,4
2,33,123,0.5
2,167,14,0.5
2,85,84,4
2,57,66,4
2,93,46,0.5
2,121,133,4
2,118,123,4
2,20,27,4
2,31,34,4
2,149,148.5,4
2,64,56,4
2,43,63,4
2,27,36,4
2,60,62.25,4
2,18,23,0.5
2,94,98.75,0.5
2,30,17,0.5
2,75,84,4
2,127,131,4
2,122,104,0.5
2,169,163,0.5
2,38,165,0.5
2,125,135,4
2,51,46,4
2,65,85,0.5
2,58,63,0.5
2,146,145,4
2,52,43,4
2,133,127.5,4
2,105,100,0.5
2,167,159,4
2,35,35,4
2,107,100,0.5
2,25,24,4
2,163,149,4
2,83,80,4
2,113,113.5,4
2,151,130.5,4
2,142,132,0.5
2,21,30,4
2,41,34,0.5
2,80,75.5,4
2,144,76.75,0.5
2,86,98,0.5
2,128,114,0.5
2,90,93,4
2,118,109,4
2,19,19.75,0.5
2,37,50,0.5
2,36,50,4
2,152,149,0.5
2,75,63,4
2,61,52.75,4
2,172,157.25,4
2,107,137.75,0.5
2,97,111,4
2,93,101.75,0.5
2,1,17.5,0.5
2,66,54,4
2,173,164,0.5
2,51,32,4
2,151,145.25,0.5
2,50,40,4
2,4,15,4
2,123,121,4
2,167,148,0.5
2,159,144,4
2,177,51,0.5
2,141,137,0.5
2,46,64,0.5
2,58,100,0.5
2,66,65,4
2,61,38,0.5
2,144,136,4
2,15,24,4
2,153,139,0.5
2,110,109,4
2,165,159,0.5
2,85,78,4
2,169,41,0.5
2,138,118,0.5
2,65,74,4
2,83,79,4
2,32,53,0.5
2,145,144,0.5
2,129,136,0.5
2,53,24,0.5
2,96,109,4
2,169,162,4
2,167,167,0.5
2,154,144,4
2,43,68,0.5
2,80,107,0.5
2,136,142,4
2,11,17,4
2,72,59,4
2,105,117,0.5
2,14,6,0.5
2,3,179,4
2,158,125,0.5
2,48,42,0.5
2,164,148.25,0.5
2,103,107.75,0.5
2,27,39.5,4
2,48,53,0.5
2,160,140.75,4
2,153,139,4
2,106,104.5,4
2,57,46.5,4
2,27,32,4
2,39,47.25,0.5
2,135,125.75,0.5
2,170,163.75,4
2,9,11,4
2,118,105.75,4
2,78,78.5,0.5
2,163,153,0.5
2,64,67,4
2,170,164,0.5
2,129,125,4
2,46,43,0.5
2,63,82,0.5
2,178,178,4
2,31,48,4
2,25,46,4
2,11,11,4
2,141,133.75,0.5
2,132,125,0.5
2,131,124,0.5
2,107,104.75,4
2,166,165,0.5
2,44,52,0.5
2,74,68.75,0.5
2,175,2,0.5
2,9,7,4
2,142,125,4
2,60,117,0.5
2,97,106.5,4
2,101,109,0.5
2,71,77,0.5
2,42,34.5,4
2,25,15,0.5
2,63,62,0.5
2,86,85,4
2,82,98,0.5
2,143,27,0.5
2,142,123,0.5
2,171,161,0.5
2,79,86,0.5
2,170,169,0.5
2,145,147,4
2,114,112,4
2,8,15,4
2,74,73,0.5
2,138,137,0.5
2,5,17,0.5
2,66,67,4
2,144,133,4
2,59,69,4
2,129,109,0.5
3,115,87.25,0.5
3,9,2,4
3,109,109.75,0.5
3,37,30,0.5
3,148,124,0.5
3,139,40,0.5
3,77,74,4
3,123,123.25,4
3,168,156.25,4
3,131,132.25,4
3,75,92,0.5
3,87,88.5,4
3,139,124.75,0.5
3,72,109,0.5
3,132,129,0.5
3,180,177.25,0.5
3,73,64.5,4
3,76,81,4
3,96,96,4
3,94,176,0.5
3,135,128.5,4
3,17,2,0.5
3,74,7,0.5
3,55,90,0.5
3,175,159.5,0.5
3,2,1.25,4
3,86,92.75,0.5
3,42,41,4
3,157,129,0.5
3,21,34,4
3,124,123,0.5
3,44,44.75,4
3,91,94,0.5
3,62,83,0.5
3,114,114.25,4
3,157,120,0.5
3,32,48,0.5
3,70,147,0.5
3,149,47,0.5
3,43,45.25,4
3,4,2.5,4
3,105,132.25,0.5
3,112,112.75,0.5
3,80,61.75,0.5
3,146,124,4
3,163,19,0.5
3,63,10.75,0.5
3,166,149.75,4
3,136,117.75,4
3,99,179.75,0.5
3,22,22,0.5
3,31,21.75,4
3,102,120,0.5
3,15,11,4
3,154,178,0.5
3,88,84.75,4
3,37,42,0.5
3,165,136.25,4
3,107,104.75,4
3,169,153.5,4
3,52,4,0.5
3,150,143,0.5
3,24,17.25,4
3,48,48,4
3,31,47.25,4
3,43,50,4
3,29,43,4
3,32,22,4
3,171,165,0.5
3,112,119,0.5
3,128,114,4
3,149,128.5,4
3,168,178,0.5
3,15,20.25,4
3,12,178,0.5
3,91,44.25,0.5
3,163,156,0.5
3,19,4.25,0.5
3,136,128,4
3,67,70,4
3,91,89,4
3,125,143,0.5
3,45,51.75,4
3,91,89.5,4
3,65,52.75,4
3,48,15,0.5
3,19,20,0.5
3,53,41.75,4
3,100,120.5,4
3,180,0.5,0.5
3,158,152,0.5
3,2,1.25,4
3,47,131,0.5
3,139,128,4
3,119,167,0.5
3,49,46.25,4
3,133,136.75,0.5
3,127,134,0.5
3,131,124.75,4
3,177,179.75,4
3,82,73,0.5
3,51,67.5,0.5
3,142,127,4
3,26,15.75,4
3,74,58.75,4
3,118,115.5,4
3,46,57,0.5
3,132,126.5,4
3,106,166,0.5
3,79,70,4
3,83,81,4
3,54,59.5,4
3,13,19,0.5
3,68,57.5,4
3,165,177,0.5
3,67,128,0.5
3,84,60,0.5
3,28,45.25,0.5
3,148,128,4
3,161,141.5,4
3,27,179,0.5
3,99,41,0.5
3,92,88,4
3,160,134.5,0.5
3,163,149,0.5
3,93,136.25,0.5
3,158,138,4
3,69,128,0.5
3,107,101.75,4
3,81,29,4
3,106,79.5,0.5
3,144,134.25,4
3,174,160.25,4
3,135,140.5,4
3,109,93.25,0.5
3,120,132.5,0.5
3,138,126.25,0.5
3,101,70,4
3,7,4,0.5
3,27,35,4
3,108,117.5,0.5
3,122,111.5,4
3,14,0,0.5
3,89,6.5,0.5
3,115,110.25,0.5
3,100,106.5,4
3,122,114.5,0.5
3,90,86,4
3,82,45,0.5
3,18,21.75,4
3,86,146,0.5
3,64,50.75,4
3,79,119,0.5
3,157,153,4
3,2,179.75,4
3,66,50,4
3,53,50,0.5
3,48,45.5,4
3,65,55.5,4
3,140,125,0.5
3,153,174,0.5
3,165,159.5,4
3,112,44.25,0.5
3,25,27.25,4
3,78,52.25,4
3,21,27.5,4
3,120,133,0.5
3,41,44,0.5
3,39,29,4
3,46,38.25,4
3,59,76,0.5
3,78,115,0.5
3,27,23.25,4
3,106,120.75,0.5
3,169,175.75,4
3,150,132.5,0.5
3,115,120.75,4
3,55,34,0.5
3,178,8,0.5
3,71,131,0.5
3,75,68.5,4
3,23,33,0.5
3,135,145,0.5
3,47,31,4
3,178,3.25,0.5
3,57,63.75,4
3,104,84,4
3,76,71,4
3,77,138,0.5
3,125,120.75,0.5
3,168,154,4
3,96,126.25,0.5
3,70,133,0.5
3,5,3,0.5
3,93,107.5,4
3,88,85.25,4
3,34,10,0.5
3,152,149,0.5
3,24,18,4
3,23,20,4
3,45,19.25,0.5
3,164,169,0.5
3,161,144.75,4
3,101,124.25,0.5
3,4,163.75,0.5
3,166,152.5,0.5
3,174,140.5,0.5
3,84,68.25,4
3,49,48.75,4
3,163,3,0.5
3,176,52,0.5
3,49,50.75,4
3,159,154.75,4
3,174,168.5,4
3,129,131.5,4
3,72,53.25,4
3,105,130,0.5
3,79,53,0.5
3,131,119.75,0.5
3,107,127,0.5
3,43,168,0.5
3,177,42.75,0.5
3,160,149,4
3,174,22,0.5
3,18,179.25,0.5
3,110,99.25,0.5
3,104,54,0.5
3,157,178,0.5
3,51,40.5,4
3,20,13,0.5
3,180,2,4
3,175,3,4
3,25,16.5,0.5
3,78,61,4
3,105,161.5,0.5
3,143,145,4
3,79,54,0.5
3,7,17,4
3,129,118.75,0.5
3,40,20,0.5
3,87,93.75,4
3,125,115.75,4
3,155,117.25,0.5
3,158,118,4
3,140,138.5,4
3,117,143,0.5
3,165,162,0.5
3,155,145,4
3,116,119.25,4
3,150,152,0.5
3,95,115.25,0.5
3,136,128,4
3,50,40,4
3,20,8,0.5
3,57,38.25,0.5
3,160,129.5,4
3,36,39.25,0.5
3,107,112.5,4
3,142,127,4
3,72,58.5,4
3,137,118.5,4
3,6,15,0.5
3,26,15.5,4
3,73,64.5,0.5
3,140,127.75,0.5
3,22,28,4
3,70,64.25,4
3,88,80,4
3,118,117,0.5
3,94,119,0.5
3,170,172.5,0.5
3,101,106,4
3,46,51,0.5
3,94,106,0.5
3,34,37.75,4
3,22,157,0.5
3,83,48,0.5
3,154,129,0.5
3,3,1.25,4
3,116,119,4
3,159,139,4
3,1,173.5,4
3,86,88,4
3,43,32.25,4
3,94,80.5,4
3,150,143.25,4
3,55,29,4
3,85,84.5,4
3,102,112.5,0.5
3,115,119.25,4
3,79,47,0.5
3,177,13,0.5
3,33,45,0.5
3,33,48.25,4
3,32,39,0.5
3,151,135,4
3,134,127.75,4
3,153,142,4
3,141,8.25,0.5
3,77,41,0.5
3,26,17.25,0.5
3,172,162.75,4
3,93,44,0.5
3,160,146.5,4
3,73,35,0.5
3,33,27.25,4
3,63,61.5,4
3,7,9,4
3,16,23,0.5
3,102,25,0.5
3,66,56.25,4
3,145,136,0.5
3,63,49,4
3,44,25.5,4
3,104,121,0.5
3,76,41.75,0.5
3,100,40,0.5
3,164,116,0.5
3,11,12.25,4
3,88,144,0.5
3,111,104.5,4
3,69,67,0.5
3,158,148,0.5
3,50,120.25,0.5
3,40,43.25,4
3,133,131,0.5
3,124,134,0.5
3,148,135.75,4
3,59,61.5,4
3,36,42.25,4
3,42,40,4
3,60,45.75,4
3,101,119.75,0.5
3,152,121.75,4
3,141,53,4
3,48,47,4
3,70,58.25,0.5
3,51,46.5,4
3,108,113.5,4
3,65,47.25,0.5
3,43,37.5,4
3,46,23,0.5
3,32,32,0.5
3,101,117,0.5
3,50,26,4
3,176,59,0.5
3,109,110,0.5
3,26,39,4
3,172,152,0.5
3,174,141.25,4
3,119,106.25,4
3,150,159,4
3,117,92,4
3,126,115.25,4
3,146,134,0.5
3,72,53.75,0.5
3,9,19.25,0.5
3,141,126,0.5
3,73,73.5,4
3,77,57,0.5
3,131,120.5,4
3,134,39.5,0.5
3,177,178.5,4
3,176,41,0.5
3,25,38,0.5
3,117,12,0.5
3,47,162,0.5
3,47,37.75,4
3,50,41.5,4
3,10,14.25,4
3,155,137.5,4
3,134,123.75,0.5
3,1,176.75,4
3,164,152.25,4
3,160,143.5,4
3,153,135,0.5
3,2,161,0.5
3,61,47,4
3,123,157,0.5
3,4,163,0.5
3,177,40,0.5
3,49,52,4
3,46,53,0.5
3,63,40,0.5
3,141,139.25,4
3,105,111.5,4
3,59,56,4
3,92,92.25,4
3,86,88.25,4
3,99,108,0.5
3,45,60,0.5
3,45,22,0.5
3,36,32.5,4
3,143,134,0.5
3,176,179,4
3,89,90.25,4
3,94,88.5,4
3,37,34.25,4
3,158,135,4
3,99,107.75,4
3,169,144.75,4
3,41,27,0.5
3,84,78.75,4
3,36,43,0.5
3,33,34.5,4
3,125,126.25,4
3,80,54,0.5
3,170,18.5,0.5
3,91,93.5,4
3,141,122,0.5
3,133,127.75,4
3,70,51,0.5
3,19,27.75,4
3,127,131,0.5
3,15,15,0.5
3,127,117,0.5
3,60,44,0.5
3,110,62,0.5
3,153,151.5,4
3,168,160,4
3,43,38,0.5
3,106,134,0.5
3,116,119,4
3,3,1,0.5
3,95,99.75,4
3,149,144,4
3,87,77.5,4
3,104,106.5,4
3,139,130.75,0.5
3,92,59,0.5
3,91,91.5,4
3,127,170,0.5
3,166,169.5,0.5
3,141,146,4
3,27,30,4
3,22,29.25,4
3,67,53,0.5
3,32,37.25,4
3,90,97,4
3,53,46,4
3,82,44,0.5
3,154,134,4
3,163,55,0.5
3,148,162,0.5
3,141,144,4
3,51,44,4
3,147,137.25,4
3,62,42.75,0.5
3,136,138,4
3,17,27.75,4
3,157,152,4
3,11,20.25,4
3,37,18.5,0.5
3,24,19.25,4
3,156,152,4
3,161,142,0.5
3,85,65,0.5
3,172,51,0.5
3,120,127,0.5
3,163,23,0.5
3,115,103.75,0.5
3,72,49,4
3,170,117.75,4
3,159,145,4
3,126,109.25,0.5
3,52,43.25,4
3,107,127,0.5
3,130,132.75,0.5
3,109,114.5,4
3,136,84,0.5
3,110,117,0.5
3,173,1.75,0.5
3,53,12.25,0.5
3,129,127.25,0.5
3,1,18,0.5
3,30,1,0.5
3,52,27,0.5
3,70,39.5,0.5
3,17,16.5,4
3,40,32,0.5
3,20,15,4
3,62,63,0.5
3,17,37.5,0.5
3,108,113.75,4
3,178,172.25,0.5
3,179,177.25,4
3,72,50,0.5
3,95,96,0.5
3,50,45.75,4
3,35,40.25,0.5
3,53,63,4
3,91,88.5,4
3,48,35.5,0.5
3,147,129.75,0.5
3,154,6,0.5
3,124,123,4
3,73,62.75,4
3,166,169,0.5
3,98,92,4
3,18,106,0.5
3,77,57,0.5
3,18,47,0.5
3,46,30,0.5
3,70,81,4
3,76,60,0.5
3,49,58,0.5
3,175,58.75,0.5
3,15,30,4
3,90,151.5,0.5
3,120,116.75,4
3,23,19.25,0.5
3,139,138.5,4
3,168,4.5,0.5
3,134,154.25,0.5
3,61,61,0.5
3,153,138.75,4
3,150,140,4
3,132,147.5,4
3,126,124,0.5
3,171,4.75,0.5
3,112,19,0.5
3,152,130.5,4
3,171,179,4
3,123,125.25,4
3,117,119,4
3,15,25.5,0.5
3,130,131,0.5
3,119,119.75,4
3,96,51,0.5
3,88,83.25,4
3,82,84.25,4
3,124,124,4
3,159,147,4
3,138,141,0.5
3,176,161.25,4
3,26,44.5,4
3,176,177,4
3,141,144,4
3,2,0.25,4
3,58,61.5,0.5
3,141,126.75,4
3,83,50,0.5
3,115,115.25,4
3,13,14.25,4
3,176,167,4
3,164,167.75,4
3,55,67.5,0.5
3,161,131,0.5
3,109,115.75,4
3,159,144,4
3,83,65,0.5
3,66,136,0.5
3,74,52,4
3,86,84,4
3,123,105,0.5
3,166,163,4
3,92,124.25,0.5
3,78,128.75,0.5
3,44,57,0.5
3,57,39.75,0.5
3,6,176,0.5
3,157,7,0.5
3,49,31,0.5
3,43,168,0.5
3,170,169.75,4
3,108,107,4
3,89,94,4
3,17,17,4
3,51,43,4
3,62,53,0.5
3,37,47,4
3,113,127.25,0.5
3,95,91,0.5
3,44,35,4
3,142,119.25,4
3,48,51,0.5
3,7,10.5,4
3,31,20.25,0.5
3,48,42.25,4
3,100,103.5,4
3,133,128,4
3,20,23,4
3,27,24.5,4
3,152,142.5,4
3,152,143.75,4
3,61,44,0.5
3,142,111.25,0.5
3,51,68.5,4
3,62,66.5,4
3,108,111.25,4
3,13,5,4
3,179,171,4
3,131,122,0.5
3,89,42,0.5
3,39,45,0.5
3,8,8.75,4
3,59,52.5,0.5
3,137,120.75,4
3,34,39,4
3,23,16,4
3,69,123,0.5
3,2,119,0.5
3,114,107,4
3,125,117.5,0.5
3,57,52.75,4
3,135,117,0.5
3,70,62.75,4
3,104,116.75,4
3,22,12,0.5
3,36,30,4
3,36,30,0.5
3,98,115,0.5
3,1,35.25,0.5
3,120,134,0.5
3,53,47,0.5
3,142,126.75,4
3,168,168.5,0.5
3,111,113.25,4
3,109,103.75,0.5
3,146,132.75,4
3,94,98.25,0.5
3,27,40,0.5
3,113,123.25,0.5
3,8,123,0.5
3,142,131.75,4
3,146,128.5,4
3,156,127.75,4
3,80,72.25,4
3,88,81.25,4
3,173,3,0.5
3,173,170.25,4
3,179,0,4
3,69,46,0.5
3,149,155,4
3,37,43.25,4
3,118,118,0.5
3,118,47,0.5
3,147,123,0.5
3,155,58,0.5
3,8,16.75,4
3,164,147.75,4
3,23,16.5,0.5
3,54,46.25,0.5
3,120,111.5,4
3,180,179.5,4
3,65,50,4
3,167,176,0.5
3,137,135.75,0.5
3,101,108.75,4
3,58,61.75,4
3,40,60.75,4
3,157,125.5,4
3,135,126.5,4
3,84,57.5,0.5
3,99,76,0.5
3,2,1.5,4
3,53,56,0.5
3,151,171.5,0.5
3,18,10.25,0.5
3,41,42,4
3,26,13.25,0.5
3,180,167,0.5
3,85,28,0.5
3,11,4.75,0.5
3,166,174,4
3,51,60,4
3,114,115,4
3,25,26,0.5
3,115,103.75,4
3,170,174,0.5
3,134,144,0.5
3,44,44.75,4
3,17,15,4
3,11,12.5,0.5
3,38,34,0.5
3,78,69.25,0.5
3,21,33.25,0.5
3,72,59.75,0.5
3,115,113.75,4
3,128,117.75,4
3,175,2.25,0.5
3,157,129,0.5
3,137,118,0.5
3,32,44.75,4
3,97,108,0.5
3,120,120,4
3,161,145,4
3,34,28,4
3,154,137.25,4
3,85,47,0.5
3,152,120.25,4
3,122,129,4
3,51,60.75,0.5
3,124,119.5,4
3,161,153.75,4
3,45,57,0.5
3,24,25.25,4
3,51,43,4
3,8,2.75,4
3,65,48,4
3,137,111,0.5
3,41,61,4
3,129,124,4
3,66,42.75,0.5
3,117,115,0.5
3,155,160,4
3,88,94,4
3,27,20,0.5
3,114,120.5,4
3,7,11.5,4
3,82,21,0.5
3,135,131.25,4
3,70,58.25,4
3,9,15,0.5
3,143,3.25,0.5
3,27,17,0.5
3,18,25.75,0.5
3,85,77,4
3,100,97,0.5
3,24,7,0.5
3,123,111,0.5
3,18,15,4
3,6,16.5,0.5
3,100,105.5,0.5
3,171,116,0.5
3,80,68.75,4
3,140,133.5,4
3,77,89,0.5
3,158,143,4
3,74,68,4
3,152,138,0.5
3,87,82.5,4
3,134,135.75,0.5
3,136,145,0.5
3,47,46,4
3,59,53.5,4
3,98,98.5,4
3,71,70.75,4
3,83,68.25,0.5
3,84,103,0.5
3,129,110,0.5
3,5,2,4
3,5,178,0.5
3,57,53,4
3,95,100,4
3,147,127.75,0.5
3,95,106,0.5
3,172,165,4
3,120,162.75,0.5
3,141,147.5,4
3,11,11.5,4
3,33,12,4
3,72,87,0.5
3,56,50.5,4
3,30,39.5,4
3,131,136.25,4
3,32,24,4
3,145,127.75,4
3,179,7,4
3,70,68.75,0.5
3,56,58,0.5
3,101,107.5,4
3,68,63.5,4
3,39,30.5,4
3,26,26.75,4
3,105,8,0.5
3,38,49.75,0.5
3,11,37,0.5
3,98,98.75,4
3,115,71,0.5
3,109,134,0.5
3,72,49,0.5
3,1,178.5,4
3,42,41,0.5
3,27,8.25,4
3,30,4,0.5
3,104,102.5,4
3,77,74.25,4
3,52,72,0.5
3,66,66,0.5
3,15,5,0.5
3,166,7.5,0.5
3,170,3,0.5
3,176,5.5,0.5
3,144,8,0.5
3,53,36,4
3,35,35.5,4
3,115,48,0.5
3,117,120.75,4
3,17,15.75,4
3,149,136,0.5
3,157,142,0.5
3,96,143,0.5
3,125,116.5,4
3,119,124,0.5
3,163,167.5,4
3,111,123,0.5
3,49,52.75,0.5
3,148,20,0.5
3,137,124.25,4
3,15,20,4
3,101,125,0.5
3,22,11.75,0.5
3,164,157,4
3,161,158,4
3,115,120,4
3,70,62.75,4
3,92,102,4
3,149,146,0.5
3,114,98,0.5
3,76,58,0.5
3,30,169,0.5
3,58,47,0.5
3,74,49,0.5
3,58,54,4
3,26,27.5,4
3,160,147,4
3,9,63,0.5
3,86,88.25,4
3,3,0,4
3,124,125,0.5
4,20,13,0.5
4,1,177,4
4,63,41,0.5
4,125,136,4
4,118,136,4
4,145,145,4
4,95,89,0.5
4,20,20,4
4,52,53,4
4,170,170,0.5
4,83,100,0.5
4,44,45,4
4,138,137,4
4,128,137,4
4,156,9,0.5
4,43,40,0.5
4,100,99,4
4,152,159,4
4,104,106,4
4,48,25,0.5
4,60,58,4
4,87,90,4
4,110,97.5,4
4,55,61.25,4
4,15,8,4
4,66,76,0.5
4,38,14,0.5
4,16,12.75,4
4,26,14.5,4
4,5,6,4
4,17,11,0.5
4,97,98.5,4
4,171,21,0.5
4,52,31,4
4,3,6.5,4
4,14,17,4
4,90,98,4
4,72,90,0.5
4,79,97.5,4
4,33,31.5,4
4,50,43,4
4,126,143,4
4,55,60.5,0.5
4,130,146,0.5
4,64,52.5,0.5
4,84,94.25,4
4,79,86,0.5
4,7,6,4
4,18,20,0.5
4,50,32,0.5
4,40,28.75,4
4,104,101,4
4,105,108.25,4
4,57,17,0.5
4,89,114,0.5
4,77,71,0.5
4,111,103.25,4
4,22,23.5,0.5
4,123,110,0.5
4,34,7,0.5
4,2,0.5,0.5
4,173,165,0.5
4,137,155.25,0.5
4,112,113.5,4
4,172,4.75,4
4,3,8.25,4
4,179,172,4
4,45,35.75,0.5
4,94,99.25,0.5
4,177,172,4
4,32,55,0.5
4,138,94,0.5
4,113,64,0.5
4,177,178.75,0.5
4,145,117,0.5
4,39,42,0.5
4,28,28,0.5
4,100,107.25,0.5
4,83,91.5,4
4,90,92.25,4
4,176,168.25,0.5
4,104,103.25,4
4,53,24.75,0.5
4,159,159,0.5
4,46,40.75,4
4,54,39,0.5
4,59,50,4
4,34,43.5,0.5
4,24,0,0.5
4,178,178.75,4
4,90,92.25,0.5
4,60,58.75,0.5
4,166,158,4
4,37,48.5,0.5
4,40,50,0.5
4,94,96.5,4
4,149,156.75,0.5
4,144,148,4
4,31,21.75,0.5
4,105,112.5,0.5
4,86,95.5,0.5
4,19,18.25,4
4,121,116,4
4,112,109,4
4,17,20,4
4,169,170,4
4,180,7,0.5
4,54,51.75,4
4,21,173.25,0.5
4,74,69,4
4,67,71,4
4,77,74,0.5
4,114,112,0.5
4,89,89.5,4
4,138,146,0.5
4,145,140.5,4
4,13,13.25,4
4,30,4,0.5
4,131,135,0.5
4,118,116.75,4
4,42,33.5,0.5
4,13,8.75,0.5
4,2,6.75,4
4,93,99.25,4
4,130,148.25,4
4,48,44.5,4
4,139,118,0.5
4,56,45,4
4,164,177.75,0.5
4,90,95,0.5
4,144,158.25,0.5
4,14,13,4
4,126,106.25,0.5
4,170,2.75,0.5
4,35,31,0.5
4,88,88,0.5
4,53,76.5,4
4,5,5,0.5
4,176,176.5,4
4,147,149.5,4
4,109,107,4
4,157,138,4
4,19,20.25,0.5
4,148,149.75,0.5
4,139,142.5,0.5
4,135,138,4
4,164,168.75,0.5
4,55,25.75,0.5
4,126,125,0.5
4,147,153.5,0.5
4,147,142,4
4,55,52.5,4
4,68,77.25,0.5
4,75,80.5,4
4,175,172.75,4
4,87,85,0.5
4,35,15.25,4
4,132,77.75,0.5
4,137,131.5,4
4,163,1.75,0.5
4,44,53,0.5
4,38,57.75,0.5
4,158,155.75,0.5
4,46,48,4
4,147,157.5,0.5
4,168,167.75,4
4,91,85.75,0.5
4,89,134.75,4
4,31,19.75,0.5
4,5,11,4
4,128,116,0.5
4,169,159.25,4
4,124,131.75,0.5
4,23,41.25,0.5
4,127,132.25,4
4,121,128,0.5
4,52,32.5,4
4,178,173.75,0.5
4,23,25,4
4,20,10.75,4
4,84,81.75,4
4,109,109.5,4
4,102,86.5,0.5
4,137,137.5,0.5
4,76,74.5,0.5
4,124,122,4
4,138,132,0.5
4,178,174.25,4
4,153,168.75,4
4,39,43,0.5
4,149,159.5,0.5
4,10,8.5,4
4,74,82.75,0.5
4,72,64,0.5
4,109,101.25,4
4,151,131,0.5
4,2,6.5,4
4,9,17,0.5
4,112,102,0.5
4,163,166.5,0.5
4,23,0.25,0.5
4,140,149.25,4
4,127,130.25,0.5
4,63,66.25,4
4,175,176.25,0.5
4,72,79.5,4
4,1,172.75,0.5
4,20,8.25,0.5
4,86,94.25,0.5
4,54,61.5,0.5
4,44,41.25,4
4,93,35.25,0.5
4,21,33.25,4
4,126,128,4
4,69,60.5,4
4,151,137.5,0.5
4,156,162.25,4
4,74,71,4
4,106,114.5,4
4,141,139.75,4
4,49,24.5,0.5
4,7,10.25,0.5
4,80,98.25,0.5
4,16,18,0.5
4,85,85,4
4,149,170,0.5
4,88,82.25,0.5
4,147,150.25,4
4,85,77,0.5
4,23,34.25,4
4,54,58.25,4
4,21,22.5,0.5
4,79,74.75,4
4,54,64.75,4
4,97,83,4
4,172,168.25,4
4,139,163.5,0.5
4,122,144,0.5
4,17,20.75,4
4,62,74,0.5
4,127,114.25,4
4,174,170.75,4
4,66,48,4
4,34,34,0.5
4,64,45,0.5
4,131,148,4
4,129,136.5,4
4,44,33,0.5
4,32,31,0.5
4,110,104,0.5
4,176,11.25,4
4,120,104.25,4
4,160,173.25,0.5
4,80,80.75,4
4,148,153.75,0.5
4,82,84.5,4
4,84,82.5,0.5
4,166,169,4
4,2,7,0.5
4,146,167,0.5
4,100,98.25,4
4,150,164.75,0.5
4,12,14,0.5
4,74,74.5,4
4,173,5,0.5
4,10,16,4
4,169,176.5,0.5
4,97,102,4
4,141,171,0.5
4,111,110.25,4
4,51,46.5,0.5
4,161,137,0.5
4,127,136.75,0.5
4,87,98.5,0.5
4,166,169,4
4,52,28.75,4
4,111,103.75,0.5
4,105,113.25,4
4,29,20.5,4
4,131,132.25,0.5
4,102,98.5,4
4,53,40.5,4
4,146,158,4
4,180,171.75,4
4,173,173,4
4,42,35.25,4
4,130,147.25,4
4,177,169.5,4
4,113,133.25,0.5
4,44,28.75,0.5
4,22,20.25,4
4,102,102,4
4,179,6.25,4
4,16,8.5,0.5
4,165,166.75,4
4,15,16,0.5
4,74,78.5,4
4,125,135.25,4
4,28,22,0.5
4,13,26.5,4
4,140,136.75,4
4,97,97.5,0.5
4,169,4.75,0.5
4,105,110.5,4
4,168,174.75,4
4,23,24.75,4
4,55,34,0.5
4,150,154.75,4
4,21,32.5,4
4,3,5.75,0.5
4,139,138.25,4
4,116,131.5,4
4,74,73.25,4
4,127,134.5,4
4,168,170.5,4
4,176,175.5,4
4,172,17.75,0.5
4,2,177.75,4
4,50,59.25,4
4,82,69.75,4
4,107,110,0.5
4,16,21,0.5
4,90,78,0.5
4,90,77.25,0.5
4,35,29.25,4
4,92,94.75,4
4,21,4.75,0.5
4,47,36.25,0.5
4,145,171.5,0.5
4,108,101.5,0.5
4,175,6,4
4,141,142.5,4
4,57,63.75,0.5
4,172,165,4
4,97,94.75,0.5
4,100,95.75,4
4,146,160,4
4,29,11,0.5
4,155,163.25,4
4,78,71.75,4
4,61,73.25,0.5
4,91,83.25,4
4,21,15.5,4
4,22,1.75,0.5
4,117,101,0.5
4,39,34.25,0.5
4,115,102.75,0.5
4,31,18.5,4
4,54,30.5,4
4,170,166.5,0.5
4,73,87.75,0.5
4,47,35.25,4
4,146,170,0.5
4,47,24.75,0.5
4,43,30.75,4
4,101,101,4
4,36,32.5,4
4,100,99.75,4
4,83,96.5,0.5
4,92,91.75,0.5
4,97,95.5,4
4,157,174.75,0.5
4,150,161.5,4
4,173,12.75,0.5
4,28,29.25,4
4,2,8.25,0.5
4,145,148.75,4
4,163,157.25,4
4,77,76.5,0.5
4,151,155,4
4,45,35.25,0.5
4,130,134.5,4
4,150,150.75,4
4,36,36.25,4
4,9,19.5,4
4,86,84,4
4,6,8.5,4
4,138,126.25,0.5
4,151,141,0.5
4,91,94,4
4,109,96.25,0.5
4,92,95.25,4
4,49,37.75,4
4,129,149,0.5
4,82,66.25,4
4,94,84,0.5
4,159,159.5,4
4,27,11.5,4
4,134,145.75,0.5
4,112,110,4
4,63,65.75,4
4,100,66.25,0.5
4,35,28.75,4
4,11,18,4
4,163,178,0.5
4,123,120.25,0.5
4,148,161.5,0.5
4,31,31.25,0.5
4,81,82.75,0.5
4,109,127.25,4
4,2,175.75,4
4,169,179.25,0.5
4,6,179,0.5
4,35,23,0.5
4,3,3.5,4
4,150,154.75,4
4,91,91.5,4
4,180,178.5,4
4,58,59.5,4
4,167,0,4
4,143,139.75,0.5
4,171,171.25,4
4,40,36.75,4
4,118,126.75,0.5
4,107,105.75,4
4,12,12,0.5
4,121,114.5,0.5
4,28,19,0.5
4,156,122,0.5
4,162,179,0.5
4,109,114.75,0.5
4,88,69.5,0.5
4,8,4.5,0.5
4,58,63.75,4
4,17,5,0.5
4,179,2.25,4
4,8,5.25,4
4,55,34.5,0.5
4,40,48.5,0.5
4,144,146,4
4,7,9,0.5
4,113,112.75,4
4,167,170,0.5
4,148,127.5,0.5
4,177,167,4
4,74,85.75,0.5
4,111,104.5,4
4,98,101.75,0.5
4,46,35.5,0.5
4,134,144,0.5
4,88,79,0.5
4,4,175.75,0.5
4,127,127,0.5
4,61,51.25,4
4,76,70.75,4
4,150,164,0.5
4,60,70,4
4,38,43.25,0.5
4,69,84,0.5
4,152,165.25,0.5
4,141,152.5,0.5
4,70,51.5,4
4,147,159.5,0.5
4,12,21.75,4
4,165,170,0.5
4,71,83.75,0.5
4,127,112,0.5
4,61,79,0.5
4,13,16.25,0.5
4,94,92,0.5
4,64,72.25,0.5
4,112,110,0.5
4,79,83,0.5
4,59,45.75,4
4,111,118.25,0.5
4,165,167,0.5
4,145,134.75,0.5
4,109,101.5,4
4,61,78.5,0.5
4,19,10.5,0.5
4,111,117.5,0.5
4,157,146,0.5
4,107,110.5,4
4,26,14.75,4
4,63,51,4
4,8,10,4
4,25,41,0.5
4,177,173.25,4
4,10,6.75,4
4,74,72.75,4
4,99,98,4
4,174,173,4
4,132,137.5,0.5
4,85,94,0.5
4,64,71,4
4,105,103.5,4
4,29,21,4
4,64,47,4
4,41,32,4
4,140,151.25,4
4,26,22,0.5
4,64,44.75,0.5
4,23,32,0.5
4,48,51.25,0.5
4,85,95.75,0.5
4,158,160.25,4
4,127,107,0.5
4,110,105.75,4
4,126,122.5,4
4,35,18.5,4
4,74,65.75,4
4,141,154,4
4,154,165.25,4
4,101,83.75,4
4,64,80.75,4
4,118,108,4
4,150,152,4
4,43,34.5,0.5
4,142,143,4
4,9,7,0.5
4,113,109.25,4
4,156,163.5,0.5
4,9,14.25,0.5
4,150,155,4
4,114,96,0.5
4,148,160.75,4
4,28,23.25,0.5
4,119,107.75,0.5
4,52,78,0.5
4,64,70.5,4
4,55,60.5,4
4,141,156.5,0.5
4,16,9.25,0.5
4,16,9.5,0.5
4,9,8.75,4
4,88,98.75,0.5
4,134,121.5,0.5
4,125,105,0.5
4,36,28.25,0.5
4,83,94.75,4
4,53,130.25,0.5
4,15,26,0.5
4,11,7.75,0.5
4,68,57.75,4
4,175,172.5,0.5
4,106,97.5,0.5
4,100,83,0.5
4,93,89.75,0.5
4,110,99,0.5
4,176,171,4
4,19,32.75,4
4,38,31.5,0.5
4,52,49.5,4
4,35,43,4
4,115,116.75,4
4,119,101.75,4
4,150,157.5,4
4,174,2,0.5
4,57,41.5,0.5
4,42,50,4
4,122,116.75,0.5
4,155,169.75,0.5
4,129,148.75,4
4,72,148.75,0.5
4,132,142,0.5
4,59,46.25,4
4,8,14,4
4,82,83,4
4,71,82,4
4,78,79.75,4
4,75,80.75,4
4,40,30.5,4
4,110,102.5,4
4,59,79.75,0.5
4,63,73,4
4,59,70.25,4
4,119,119.25,0.5
4,7,7,4
4,105,103.25,0.5
4,68,77.5,4
4,85,82.75,4
4,87,84.75,4
4,95,98,4
4,113,111.75,4
4,83,90.25,0.5
4,94,85.5,4
4,114,104.25,0.5
4,15,13.25,0.5
4,140,156,4
4,83,81.75,0.5
4,7,7.5,4
4,15,18.75,0.5
4,23,17.5,0.5
4,83,90,0.5
4,140,157.5,0.5
4,121,114.25,0.5
4,80,91.25,0.5
4,24,11.75,0.5
4,5,10.75,4
4,175,1.5,0.5
4,113,98,0.5
4,125,119.75,4
4,53,49,4
4,34,42,4
4,124,132,4
4,136,138.75,4
4,11,12,4
4,129,111.25,4
4,1,12.25,0.5
4,37,32,4
4,164,0.5,0.5
4,146,159,4
4,14,12.25,4
4,42,36.75,4
4,138,148.25,4
4,99,82,4
4,138,139.5,4
4,146,163.25,0.5
4,92,94.75,0.5
4,85,83,0.5
4,92,86,4
4,75,80.25,0.5
4,160,165.5,0.5
4,147,161,0.5
4,34,17.5,0.5
4,77,77.75,0.5
4,93,86.5,0.5
4,42,32.25,4
4,116,108.5,4
4,84,99,0.5
4,122,90.25,0.5
4,90,95.75,0.5
4,71,83.75,4
4,42,38.5,4
4,180,4.5,4
4,118,133.75,0.5
4,5,3,4
4,10,3.75,0.5
4,63,95,0.5
4,53,77.25,4
4,119,114.25,0.5
4,3,3.5,4
4,88,89.25,0.5
4,89,98.25,0.5
4,18,17.5,4
4,61,38.75,4
4,118,118.75,4
4,101,110.25,4
4,15,14.75,0.5
4,31,23.75,4
4,114,103.75,0.5
4,25,11,0.5
4,136,122.25,4
4,13,12.75,0.5
4,72,63.25,0.5
4,157,152.25,4
4,128,136.75,0.5
4,76,72.5,0.5
4,38,52.5,0.5
4,120,151.75,0.5
4,86,86.25,0.5
4,132,142.5,4
4,145,145.25,4
4,142,148.5,0.5
4,153,166.75,0.5
4,109,82.75,0.5
4,16,6.5,0.5
4,139,155,4
4,173,178,0.5
4,16,7,0.5
4,34,12.25,0.5
4,2,3,4
4,104,91,0.5
4,82,82.5,0.5
4,25,18.5,4
4,77,73.75,4
4,17,3.75,0.5
4,94,94.25,4
4,146,174.25,0.5
4,7,8.75,0.5
4,107,101,4
4,90,96,4
4,145,157.75,4
4,148,149.75,4
4,166,163,0.5
4,7,7,4
4,28,7,0.5
4,144,168,0.5
4,40,64,0.5
4,157,159.25,0.5
4,134,172.5,0.5
4,80,75.75,4
4,2,7.5,4
4,132,151.75,0.5
4,117,113.25,4
4,161,160.5,4
4,26,25.25,0.5
4,116,117.75,4
4,167,169,4
4,41,40,0.5
4,10,22.5,0.5
4,5,11,4
4,132,102.5,0.5
4,51,47.5,0.5
4,122,113,0.5
4,102,94.5,4
4,25,18.5,0.5
4,52,23,4
4,73,71.75,4
4,174,1.5,0.5
4,176,171.5,4
4,64,69.75,4
4,148,152.75,0.5
4,123,128,4
4,70,30.25,0.5
4,43,37,4
4,20,18.25,0.5
4,133,140.75,4
4,139,96.25,0.5
4,92,89.5,4
4,47,49.75,0.5
4,70,65,4
4,88,86.5,4
4,142,158,0.5
4,3,7.5,0.5
4,38,20.75,0.5
4,177,4.25,4
4,158,164,4
4,164,161.5,4
4,20,25,0.5
4,128,125.25,4
4,11,7.25,0.5
4,174,1.75,4
4,37,32,4
4,143,139.5,0.5
4,106,112.5,4
4,111,98.75,0.5
4,30,27.75,4
4,122,106.25,0.5
4,15,17,4
4,7,15.75,4
4,24,16.5,0.5
4,124,136.75,0.5
4,83,91.25,0.5
4,27,5.25,0.5
4,140,142.25,0.5
4,128,137.5,4
4,23,16.75,4
4,54,35.5,0.5
4,135,142,4
4,89,94,4
4,174,2.25,0.5
4,157,170.25,0.5
4,132,91.25,0.5
4,155,1.25,0.5
4,57,75.75,0.5
4,129,142,0.5
4,111,108.25,0.5
4,24,20.75,0.5
4,22,24.5,4
4,57,51.75,0.5
4,50,44.5,4
4,155,170.25,4
4,42,51,0.5
4,150,158,4
4,69,74.75,0.5
4,133,142.5,0.5
4,148,141.5,4
4,75,72.25,4
4,131,69,0.5
4,36,2,0.5
4,177,10,0.5
4,145,138.25,4
4,60,46.5,4
4,113,108,0.5
4,162,172.75,0.5
4,101,93,4
4,93,92,0.5
4,78,84.75,4
4,144,164.75,0.5
4,101,95.5,0.5
4,51,43,4
4,99,94.5,0.5
4,60,38.25,0.5
4,9,3.5,0.5
4,99,98,4
4,74,62.5,4
4,136,155.25,4
4,68,61.25,4
4,56,64.25,0.5
4,66,74,4
4,131,150,4
4,97,100.5,4
4,156,170,4
4,113,106,4
4,176,6.75,4
4,26,19.5,4
4,81,97.5,4
4,162,159.25,4
4,43,49.25,4
4,39,53.25,0.5
4,18,20.75,4
4,73,79,4
4,74,77.5,4
4,29,7.5,0.5
4,75,60.5,0.5
4,31,19.75,0.5
4,14,15.5,4
4,14,6.25,0.5
4,39,17.5,0.5
4,116,111.5,0.5
4,132,116.75,4
4,54,41.25,4
4,178,177,4
4,24,17.75,0.5
4,139,146.75,4
4,146,141,4
4,118,121.5,4
4,72,72.75,4
4,129,158.75,0.5
4,150,159,4
4,33,21,4
4,100,99.25,0.5
4,39,25,0.5
4,46,33.5,4
4,86,93.25,0.5
4,39,34.5,4
4,10,11.25,4
4,168,170.25,4
4,9,14.25,0.5
4,10,2.75,0.5
5,33,96,0.5
5,40,42,4
5,137,123,4
5,26,38,0.5
5,120,90,0.5
5,177,150,0.5
5,11,2,4
5,171,160,4
5,161,8,0.5
5,73,89,0.5
5,153,145,4
5,85,87,4
5,108,102,4
5,22,37,4
5,151,167,0.5
5,175,8,0.5
5,149,56,0.5
5,135,132,4
5,42,39,4
5,20,22,0.5
5,69,50,4
5,79,93,4
5,126,127,4
5,15,43,0.5
5,70,141,0.5
5,19,27,4
5,9,172,0.5
5,39,36,4
5,141,153,4
5,161,162,4
5,138,111,0.5
5,113,127,0.5
5,179,174,4
5,49,153,0.5
5,159,158,4
5,173,157,4
5,27,37,4
5,49,61,4
5,50,52,4
5,177,175,4
5,179,177,4
5,117,119,0.5
5,73,121,0.5
5,116,98,0.5
5,150,151,0.5
5,163,131,0.5
5,33,30,4
5,148,140,4
5,177,151,0.5
5,17,176,0.5
5,155,32,0.5
5,93,93,4
5,6,17,4
5,2,14,4
5,16,39,0.5
5,70,55,0.5
5,25,37,0.5
5,173,9,0.5
5,58,61,0.5
5,39,50,4
5,147,141,4
5,73,52,4
5,21,62,0.5
5,25,50,4
5,143,117,0.5
5,115,97,0.5
5,112,119,4
5,1,14,0.5
5,1,178,4
5,52,52,0.5
5,177,169,0.5
5,110,117,4
5,136,139,4
5,163,169,4
5,66,51,0.5
5,50,50,4
5,1,2,4
5,136,138,4
5,83,83,0.5
5,154,153,0.5
5,86,58,0.5
5,69,62,0.5
5,170,157,4
5,64,48,4
5,50,73,0.5
5,165,144,4
5,5,177,4
5,74,70,4
5,58,109,4
5,151,110,0.5
5,168,154,4
5,166,156,4
5,101,90,0.5
5,100,93,0.5
5,173,173,4
5,36,49,4
5,118,111,0.5
5,90,77,4
5,120,135,0.5
5,95,122,4
5,80,86,4
5,78,91,4
5,97,123,4
5,36,40,4
5,109,110,0.5
5,59,49,4
5,17,138,0.5
5,72,89,0.5
5,69,78,0.5
5,74,62,0.5
5,32,24,0.5
5,36,14,0.5
5,36,20,0.5
5,139,137,0.5
5,161,138,0.5
5,135,132,4
5,119,120,4
5,161,130,0.5
5,132,138,0.5
5,1,179,0.5
5,69,82,4
5,64,84,4
5,178,178,4
5,137,138,4
5,154,108,0.5
5,111,91,0.5
5,80,103,4
5,42,118,0.5
5,25,25,4
5,122,128,0.5
5,64,48,4
5,16,33,0.5
5,177,148,4
5,58,45,4
5,92,120,4
5,5,13,4
5,26,41,4
5,36,14,4
5,168,13,0.5
5,153,142,4
5,38,48,0.5
5,115,140,0.5
5,87,91,4
5,20,37,4
5,161,148,4
5,34,21,0.5
5,43,13,0.5
5,78,71,4
5,114,115,0.5
5,163,156,4
5,137,135,0.5
5,60,149,0.5
5,177,176,4
5,55,50,0.5
5,38,56,0.5
5,102,112,4
5,155,68,0.5
5,72,58,4
5,146,117,0.5
5,146,120,0.5
5,37,43,4
5,178,151,0.5
5,69,72,0.5
5,120,108,0.5
5,10,6,0.5
5,144,146,4
5,134,120,0.5
5,45,63,4
5,33,52,0.5
5,160,134,4
5,45,64,0.5
5,54,36,0.5
5,18,49,0.5
5,19,27,4
5,82,68,4
5,107,125,0.5
5,145,134,0.5
5,131,129,4
5,70,52,0.5
5,52,49,4
5,58,59,4
5,80,109,0.5
5,49,43,0.5
5,60,49,0.5
5,72,90,0.5
5,176,1,4
5,55,68,4
5,64,60,0.5
5,74,54,4
5,174,147,4
5,25,26,4
5,88,112,0.5
5,97,107,4
5,72,69,4
5,137,136,0.5
5,74,64,4
5,52,64,0.5
5,31,41,0.5
5,155,139,0.5
5,112,126,0.5
5,101,107,4
5,149,116,0.5
5,69,59,4
5,28,26,0.5
5,99,118,0.5
5,32,39,4
5,6,0,4
5,164,160,0.5
5,2,143,0.5
5,68,61,0.5
5,64,62,4
5,155,139,0.5
5,172,153,4
5,130,118,4
5,120,123,4
5,174,173,0.5
5,91,89,4
5,61,54,4
5,12,1,0.5
5,119,122,0.5
5,129,146,4
5,54,54,4
5,86,89,4
5,1,1,4
5,164,149,4
5,71,52,0.5
5,58,63,4
5,79,50,4
5,48,52,4
5,128,123,4
5,109,125,0.5
5,164,147,4
5,174,2,0.5
5,47,25,0.5
5,68,68,0.5
5,62,62,0.5
5,10,179,0.5
5,26,36,4
5,9,2,4
5,128,147,4
5,114,113,4
5,2,5,4
5,159,155,0.5
5,160,143,0.5
5,141,139,4
5,88,93,0.5
5,15,9,4
5,92,98,0.5
5,166,151,0.5
5,76,63,0.5
5,72,57,0.5
5,119,122,0.5
5,150,129,4
5,153,143,4
5,3,5,4
5,2,6,0.5
5,50,65,0.5
5,67,60,0.5
5,146,143,4
5,108,115,4
5,44,36,4
5,100,112,0.5
5,59,62,4
5,7,11,0.5
5,25,36,0.5
5,60,37,4
5,8,14,4
5,169,166,4
5,79,84,0.5
5,120,98,4
5,145,119,0.5
5,45,57,0.5
5,84,96,4
5,26,24,0.5
5,101,91,4
5,22,32,0.5
5,76,83,4
5,68,61,0.5
5,33,34,4
5,112,145,4
5,140,125,0.5
5,178,168,0.5
5,145,135,4
5,7,14,0.5
5,4,176,0.5
5,96,86,4
5,39,41,4
5,163,131,4
5,112,122,4
5,104,128,4
5,155,136,0.5
5,10,31,4
5,98,118,4
5,59,45,0.5
5,22,6,0.5
5,56,42,4
5,9,1,0.5
5,45,53,4
5,141,145,0.5
5,169,6,0.5
5,177,166,4
5,64,50,0.5
5,160,152,4
5,89,100,4
5,122,128,0.5
5,2,155,4
5,99,111,0.5
5,42,49,0.5
5,78,73,4
5,55,51,4
5,85,81,0.5
5,75,61,4
5,179,179,4
5,16,174,0.5
5,107,105,4
5,95,115,4
5,174,149,4
5,48,49,0.5
5,96,111,4
5,154,128,0.5
5,10,14,4
5,80,91,0.5
5,17,4,0.5
5,35,25,0.5
5,172,0,4
5,35,29,4
5,53,35,0.5
5,42,44,4
5,18,27,0.5
5,177,179,4
5,167,164,4
5,35,34,4
5,122,126,4
5,149,131,4
5,147,149,4
5,134,140,4
5,6,22,4
5,26,16,4
5,22,21,4
5,143,126,0.5
5,35,36,4
5,57,55,4
5,62,66,0.5
5,151,153,4
5,39,43,4
5,159,136,4
5,99,99,4
5,151,141,0.5
5,131,120,4
5,128,119,4
5,60,57,4
5,38,24,0.5
5,89,89,4
5,7,165,4
5,61,49,0.5
5,91,91,4
5,171,105,0.5
5,84,91,0.5
5,168,152,4
5,50,51,4
5,109,119,0.5
5,106,120,0.5
5,132,129,0.5
5,81,72,4
5,89,94,0.5
5,136,134,4
5,144,157,4
5,135,145,4
5,155,174,0.5
5,9,173,4
5,26,25,4
5,43,33,4
5,65,55,4
5,100,108,0.5
5,109,115,4
5,137,120,0.5
5,37,33,4
5,37,30,4
5,46,43,4
5,20,17,0.5
5,163,145,4
5,54,48,0.5
5,43,39,0.5
5,102,128,0.5
5,94,91,0.5
5,67,63,4
5,41,29,4
5,8,177,0.5
5,79,10,0.5
5,166,141,0.5
5,40,21,4
5,160,152,4
5,153,143,4
5,142,134,4
5,104,106,0.5
5,132,122,4
5,28,49,4
5,147,127,4
5,12,175,0.5
5,145,139,0.5
5,111,110,4
5,67,48,0.5
5,46,46,0.5
5,67,61,4
5,36,37,4
5,137,148,0.5
5,41,130,0.5
5,142,148,4
5,163,134,0.5
5,158,160,0.5
5,112,109,0.5
5,129,123,4
5,101,106,0.5
5,101,95,0.5
5,36,34,0.5
5,16,140,0.5
5,30,43,4
5,44,48,4
5,157,144,4
5,28,22,4
5,89,61,0.5
5,40,35,4
5,34,9,0.5
5,89,90,4
5,154,149,0.5
5,67,60,0.5
5,12,9,4
5,30,24,4
5,24,27,0.5
5,74,38,0.5
5,48,42,0.5
5,24,21,0.5
5,11,18,0.5
5,167,148,0.5
5,13,86,0.5
5,76,132,0.5
5,111,122,0.5
5,81,85,4
5,97,85,4
5,129,98,0.5
5,140,33,4
5,1,7,0.5
5,65,61,0.5
5,151,124,0.5
5,166,137,0.5
5,54,43,0.5
5,46,33,4
5,95,108,4
5,174,158,4
5,177,159,0.5
5,2,0,4
5,104,98,0.5
5,115,118,4
5,168,160,4
5,110,156,0.5
5,136,124,4
5,114,116,0.5
5,26,49,0.5
5,107,41,0.5
5,16,28,4
5,34,42,4
5,20,14,0.5
5,132,131,4
5,20,143,4
5,18,4,0.5
5,53,55,4
5,44,43,4
5,1,6,4
5,72,89,0.5
5,21,38,4
5,71,54,0.5
5,34,27,0.5
5,11,164,0.5
5,135,131,0.5
5,2,4,4
5,56,50,4
5,95,82,4
5,164,172,0.5
5,67,47,4
5,61,47,0.5
5,176,7,0.5
5,170,161,0.5
5,80,73,0.5
5,84,111,0.5
5,32,43,4
5,155,153,4
5,21,14,4
5,76,68,4
5,159,152,4
5,105,119,4
5,38,24,0.5
5,32,46,4
5,108,117,4
5,42,51,0.5
5,49,56,0.5
5,54,135,4
5,119,123,4
5,100,99,0.5
5,97,111,0.5
5,144,138,4
5,36,39,4
5,15,33,4
5,116,125,0.5
5,81,114,0.5
5,28,10,4
5,75,54,4
5,110,128,0.5
5,119,122,0.5
5,17,34,4
5,67,51,0.5
5,66,61,0.5
5,14,3,0.5
5,161,144,0.5
5,72,70,4
5,129,133,0.5
5,78,103,4
5,19,31,4
5,130,118,4
5,172,172,0.5
5,14,172,0.5
5,74,46,4
5,135,169,0.5
5,97,89,4
5,87,98,0.5
5,167,162,0.5
5,136,125,4
5,140,128,4
5,87,112,0.5
5,168,156,0.5
5,27,29,0.5
5,12,15,4
5,29,21,0.5
5,134,123,4
5,34,35,0.5
5,106,121,4
5,77,73,4
5,54,50,0.5
5,128,136,4
5,58,36,0.5
5,131,128,0.5
5,173,153,0.5
5,124,140,4
5,37,0,0.5
5,29,24,0.5
5,127,131,4
5,41,37,4
5,60,56,4
5,129,132,4
5,142,127,0.5
5,178,2,4
5,8,5,4
5,116,118,4
5,44,48,0.5
5,16,61,0.5
5,125,140,4
5,169,140,0.5
5,96,120,4
5,117,114,0.5
5,146,150,4
5,83,111,0.5
5,115,118,4
5,42,44,4
5,173,5,0.5
5,178,174,4
5,123,114,4
5,54,45,0.5
5,79,56,4
5,16,30,4
5,127,128,0.5
5,32,37,0.5
5,87,83,0.5
5,170,172,0.5
5,39,51,0.5
5,122,136,0.5
5,7,12,4
5,118,123,4
5,124,130,4
5,85,84,0.5
5,121,105,0.5
5,153,142,0.5
5,79,102,4
5,95,105,0.5
5,46,101,0.5
5,178,179,0.5
5,24,1,0.5
5,131,124,4
5,41,26,0.5
5,17,18,4
5,63,55,4
5,134,131,4
5,6,4,0.5
5,36,17,4
5,145,131,0.5
5,16,176,0.5
5,39,43,4
5,11,18,4
5,101,111,4
5,125,116,0.5
5,86,90,4
5,166,154,4
5,86,89,0.5
5,135,136,0.5
5,155,139,4
5,1,175,0.5
5,159,139,4
5,6,8,0.5
5,165,172,4
5,154,146,4
5,139,140,0.5
5,153,139,4
5,122,112,4
5,82,97,4
5,103,101,0.5
5,15,31,4
5,53,46,4
5,13,8,0.5
5,119,99,0.5
5,145,151,0.5
5,143,136,4
5,98,121,0.5
5,70,131,0.5
5,166,154,0.5
5,14,26,4
5,64,66,4
5,20,12,4
5,168,148,4
5,122,122,0.5
5,179,89,0.5
5,72,85,4
5,50,56,4
5,164,151,4
5,57,37,4
5,164,137,0.5
5,157,139,4
5,20,26,4
5,87,120,4
5,68,62,4
5,41,33,4
5,47,49,0.5
5,62,51,0.5
5,70,43,4
5,138,133,0.5
5,172,174,0.5
5,75,70,4
5,12,4,0.5
5,65,24,0.5
5,93,81,4
5,163,156,0.5
5,70,58,4
5,139,134,0.5
5,87,57,4
5,120,133,0.5
5,160,159,4
5,56,47,0.5
5,25,34,4
5,150,140,0.5
5,18,128,0.5
5,97,120,4
5,28,44,4
5,171,178,0.5
5,152,139,4
5,84,69,4
5,64,70,4
5,137,129,4
5,144,133,4
5,138,138,0.5
5,19,162,0.5
5,53,39,0.5
5,12,26,4
5,46,53,0.5
5,42,40,0.5
5,73,80,0.5
5,59,90,0.5
5,93,89,4
5,32,40,4
5,112,127,0.5
5,5,10,0.5
5,105,124,0.5
5,12,12,4
5,54,5,0.5
5,100,108,0.5
5,98,111,0.5
5,123,114,4
5,37,34,0.5
5,23,13,0.5
5,101,125,0.5
5,85,98,0.5
5,98,99,4
5,65,91,0.5
5,40,48,0.5
5,84,85,0.5
5,85,107,4
5,12,18,4
5,175,1,4
5,50,35,0.5
5,105,116,4
5,41,51,4
5,153,136,0.5
5,108,110,0.5
5,144,139,4
5,179,167,0.5
5,18,5,0.5
5,26,28,4
5,153,140,0.5
5,116,114,4
5,86,92,0.5
5,120,105,0.5
5,45,59,0.5
5,111,118,0.5
5,90,94,4
5,88,88,4
5,82,71,4
5,170,166,0.5
5,133,137,0.5
5,78,95,0.5
5,152,155,4
5,154,148,0.5
5,109,117,0.5
5,179,177,4
5,114,119,4
5,124,123,0.5
5,150,145,4
5,23,36,4
5,179,165,0.5
5,180,0,4
5,58,49,0.5
5,73,3,0.5
5,37,19,4
5,14,35,0.5
5,175,175,4
5,180,173,4
5,26,38,4
5,145,134,4
5,5,1,4
5,159,163,0.5
5,87,91,4
5,144,134,4
5,168,147,4
5,180,166,4
5,135,124,0.5
5,25,40,4
5,95,96,4
5,47,51,4
5,106,105,4
5,15,32,0.5
5,2,19,0.5
5,26,19,0.5
5,92,104,0.5
5,71,88,0.5
5,79,76,4
5,138,139,4
5,128,139,4
5,137,139,0.5
5,138,146,4
5,37,48,0.5
5,79,74,0.5
5,100,96,0.5
5,18,5,0.5
5,122,144,0.5
5,117,108,0.5
5,152,143,0.5
5,59,57,4
5,146,137,4
5,91,113,0.5
5,138,129,4
5,69,61,0.5
5,55,51,4
5,61,55,0.5
5,131,137,0.5
5,19,13,0.5
5,139,155,0.5
5,114,125,0.5
5,79,96,0.5
5,67,60,4
5,123,121,0.5
5,26,26,0.5
5,125,120,4
5,49,54,4
5,46,52,0.5
5,36,29,0.5
5,87,89,4
5,117,109,4
5,38,22,0.5
5,57,90,0.5
5,171,177,0.5
5,127,135,0.5
5,157,85,0.5
5,162,46,0.5
5,19,19,4
5,28,41,4
5,88,88,0.5
5,111,101,4
5,122,100,0.5
5,176,179,4
5,124,136,4
5,82,81,0.5
5,109,97,0.5
5,163,149,4
5,155,150,0.5
5,19,172,0.5
5,64,60,4
5,126,121,0.5
5,29,50,0.5
5,122,126,0.5
5,135,135,4
5,136,126,0.5
5,153,140,0.5
5,55,43,0.5
5,128,126,4
5,23,44,0.5
5,145,29,0.5
5,14,18,0.5
5,148,151,0.5
5,152,135,4
5,110,107,4
5,179,4,4
5,83,79,0.5
5,31,40,0.5
5,36,37,0.5
5,159,148,4
5,92,81,0.5
6,3,45,0.5
6,97,134,4
6,134,76,4
6,69,34,4
6,130,115,0.5
6,138,128,0.5
6,92,89,4
6,5,28,4
6,153,161,4
6,138,132,0.5
6,45,25,0.5
6,121,121,4
6,89,76,4
6,105,88,0.5
6,102,64,4
6,125,149,0.5
6,15,15,0.5
6,50,24,4
6,19,19,4
6,137,93,0.5
6,28,19,4
6,102,127,4
6,105,106,4
6,65,44,4
6,156,35,0.5
6,114,93,4
6,40,25,0.5
6,104,144,0.5
6,43,11,0.5
6,85,69,4
6,125,155,0.5
6,84,51,4
6,123,47,0.5
6,94,113,4
6,137,139,4
6,3,10,0.5
6,47,26,0.5
6,124,123,4
6,96,111,4
6,26,52,4
6,143,160,0.5
6,83,157,4
6,136,104,0.5
6,125,141,4
6,118,44,0.5
6,163,145,0.5
6,80,69,4
6,180,13,4
6,18,35,0.5
6,58,49,0.5
6,119,72,0.5
6,168,168,0.5
6,30,23,0.5
6,135,99,0.5
6,132,145,0.5
6,178,7,0.5
6,141,128,0.5
6,71,35,0.5
6,80,49,4
6,160,143,4
6,151,22,0.5
6,2,24,0.5
6,87,114,0.5
6,79,57,0.5
6,112,126,0.5
6,124,127,4
6,50,34,4
6,105,44,0.5
6,148,132,4
6,137,21,0.5
6,123,133,4
6,145,28,4
6,129,172,4
6,97,31,0.5
6,53,44,4
6,134,108,0.5
6,157,133,4
6,175,163,0.5
6,175,147,4
6,70,63,4
6,29,19,0.5
6,167,149,4
6,127,104,0.5
6,119,138,0.5
6,145,169,4
6,88,62,4
6,2,168,0.5
6,51,28,4
6,140,139,4
6,20,27,4
6,54,32,0.5
6,20,17,0.5
6,39,160,0.5
6,120,106,0.5
6,179,166,0.5
6,180,179,4
6,57,62,4
6,155,138,4
6,155,139,4
6,59,16,0.5
6,31,152,0.5
6,99,133,4
6,64,38,0.5
6,147,132,4
6,170,126,0.5
6,57,65,0.5
6,70,55,4
6,27,28,4
6,153,173,4
6,10,37,4
6,37,23,4
6,75,117,0.5
6,77,44,4
6,25,77,0.5
6,107,141,4
6,82,143,0.5
6,95,129,4
6,107,125,4
6,42,41,4
6,27,39,0.5
6,155,154,4
6,42,51,4
6,58,20,0.5
6,124,138,0.5
6,123,139,4
6,96,120,4
6,127,144,0.5
6,172,151,4
6,79,56,4
6,54,37,4
6,12,35,0.5
6,171,152,0.5
6,154,140,4
6,135,33,0.5
6,101,108,0.5
6,55,45,4
6,156,127,0.5
6,144,151,4
6,23,39,0.5
6,105,137,4
6,57,23,4
6,140,133,4
6,130,35,0.5
6,38,53,0.5
6,147,15,0.5
6,107,147,0.5
6,153,154,4
6,81,40,4
6,85,109,4
6,179,143,0.5
6,94,78,0.5
6,11,171,0.5
6,72,53,0.5
6,114,153,4
6,147,143,4
6,109,122,4
6,28,29,4
6,49,107,0.5
6,74,38,4
6,50,22,4
6,76,23,4
6,68,30,4
6,139,24,0.5
6,155,155,0.5
6,165,151,4
6,26,28,0.5
6,77,159,0.5
6,54,28,4
6,35,43,4
6,10,138,0.5
6,120,126,4
6,125,121,4
6,54,35,4
6,34,40,4
6,72,168,0.5
6,154,45,0.5
6,86,133,0.5
6,162,139,4
6,131,161,0.5
6,6,12,4
6,7,12,4
6,173,138,4
6,108,133,4
6,117,146,4
6,93,67,0.5
6,59,83,0.5
6,110,116,0.5
6,145,143,4
6,80,43,4
6,17,13,0.5
6,65,60,4
6,159,146,0.5
6,92,131,4
6,33,50,4
6,132,139,4
6,106,148,4
6,49,45,0.5
6,179,158,4
6,28,30,4
6,152,166,0.5
6,118,148,0.5
6,33,35,0.5
6,19,65,0.5
6,95,123,4
6,177,156,0.5
6,85,112,4
6,115,112,0.5
6,89,124,0.5
6,124,133,4
6,52,47,4
6,168,153,4
6,65,63,4
6,161,153,0.5
6,87,46,0.5
6,163,149,4
6,169,131,0.5
6,28,40,4
6,124,150,4
6,25,161,0.5
6,105,132,4
6,73,27,0.5
6,150,132,0.5
6,157,155,4
6,13,26,0.5
6,136,143,0.5
6,174,154,4
6,78,146,0.5
6,107,145,4
6,104,140,4
6,178,162,4
6,167,173,4
6,33,37,4
6,159,170,4
6,8,37,0.5
6,41,35,0.5
6,55,31,4
6,123,144,0.5
6,11,28,4
6,179,178,4
6,151,130,0.5
6,14,36,0.5
6,21,42,4
6,6,22,4
6,136,165,0.5
6,94,34,0.5
6,47,37,0.5
6,73,36,0.5
6,59,44,4
6,44,31,0.5
6,153,153,0.5
6,65,13,0.5
6,77,75,0.5
6,75,38,4
6,124,142,4
6,84,66,4
6,159,134,0.5
6,50,40,0.5
6,126,152,4
6,127,116,4
6,135,127,0.5
6,71,46,4
6,150,141,4
6,153,117,4
6,65,36,0.5
6,177,170,0.5
6,123,130,0.5
6,10,160,0.5
6,88,58,4
6,106,139,4
6,73,69,0.5
6,160,145,0.5
6,26,20,0.5
6,93,121,0.5
6,82,61,4
6,110,115,0.5
6,27,35,4
6,149,145,4
6,26,0,4
6,76,125,4
6,133,151,4
6,18,37,4
6,125,138,0.5
6,111,117,4
6,3,38,4
6,95,135,0.5
6,72,48,0.5
6,142,134,0.5
6,140,146,0.5
6,112,153,0.5
6,33,20,4
6,153,144,0.5
6,179,53,0.5
6,125,133,0.5
6,37,56,4
6,133,132,0.5
6,14,40,0.5
6,67,39,0.5
6,95,157,0.5
6,149,161,0.5
6,48,48,0.5
6,28,24,4
6,155,144,4
6,138,137,0.5
6,10,43,0.5
6,100,128,0.5
6,1,179,4
6,96,80,0.5
6,121,97,0.5
6,122,116,0.5
6,60,41,0.5
6,6,45,0.5
6,163,134,4
6,77,112,0.5
6,142,151,4
6,105,135,4
6,142,149,4
6,56,46,0.5
6,6,21,4
6,129,131,0.5
6,71,69,4
6,131,138,4
6,22,36,0.5
6,133,152,0.5
6,103,129,0.5
6,136,139,4
6,38,33,0.5
6,86,31,0.5
6,64,35,4
6,163,151,4
6,58,55,4
6,84,64,0.5
6,14,26,4
6,150,0,0.5
6,42,35,4
6,67,44,0.5
6,158,153,4
6,93,117,4
6,158,152,0.5
6,2,147,0.5
6,16,22,4
6,133,146,0.5
6,177,21,0.5
6,99,91,4
6,30,32,0.5
6,74,88,0.5
6,45,48,4
6,79,79,0.5
6,60,18,0.5
6,36,34,0.5
6,93,119,0.5
6,157,135,0.5
6,64,36,4
6,31,55,4
6,61,114,0.5
6,48,46,4
6,154,139,4
6,86,44,4
6,130,115,4
6,95,111,4
6,151,149,0.5
6,49,55,4
6,42,58,0.5
6,150,141,4
6,145,44,0.5
6,45,43,4
6,13,26,0.5
6,10,36,0.5
6,146,136,4
6,26,36,0.5
6,89,64,4
6,1,6,4
6,87,105,4
6,80,43,0.5
6,118,114,0.5
6,67,54,0.5
6,56,131,0.5
6,42,42,4
6,101,135,0.5
6,64,51,0.5
6,28,43,0.5
6,134,146,0.5
6,46,38,4
6,71,150,0.5
6,101,116,4
6,163,165,0.5
6,153,146,0.5
6,15,32,4
6,98,123,0.5
6,21,38,0.5
6,86,94,4
6,3,23,4
6,129,145,0.5
6,106,68,0.5
6,7,8,0.5
6,42,30,0.5
6,71,27,4
6,144,125,4
6,134,140,4
6,168,166,4
6,17,24,4
6,54,136,4
6,35,50,0.5
6,177,22,0.5
6,146,148,0.5
6,80,74,4
6,12,21,4
6,63,76,4
6,65,141,0.5
6,166,157,4
6,169,147,4
6,144,164,0.5
6,132,142,0.5
6,4,171,0.5
6,114,124,4
6,73,59,0.5
6,139,120,0.5
6,99,129,0.5
6,26,33,4
6,56,30,4
6,96,126,0.5
6,175,154,4
6,93,121,4
6,105,153,0.5
6,123,139,4
6,93,133,4
6,90,49,0.5
6,44,37,4
6,73,20,0.5
6,16,140,0.5
6,33,37,0.5
6,88,81,4
6,36,46,4
6,77,57,4
6,138,131,4
6,91,55,0.5
6,107,122,4
6,21,61,0.5
6,81,120,4
6,103,68,0.5
6,167,151,4
6,8,33,0.5
6,171,172,0.5
6,126,128,4
6,44,28,4
6,65,56,4
6,119,142,4
6,88,114,0.5
6,161,166,4
6,111,118,0.5
6,176,165,0.5
6,141,124,0.5
6,51,56,0.5
6,15,26,4
6,68,43,4
6,12,35,0.5
6,108,160,4
6,125,35,0.5
6,128,142,4
6,127,136,0.5
6,57,73,4
6,37,43,4
6,15,41,0.5
6,141,150,4
6,104,133,4
6,62,18,4
6,144,30,0.5
6,104,139,4
6,166,13,0.5
6,159,154,0.5
6,118,141,0.5
6,120,131,4
6,175,22,0.5
6,67,61,0.5
6,10,40,0.5
6,72,46,4
6,128,137,4
6,120,119,0.5
6,39,40,0.5
6,120,122,4
6,165,174,4
6,92,99,4
6,166,157,0.5
6,52,44,4
6,31,31,4
6,71,50,0.5
6,103,123,0.5
6,91,70,4
6,136,150,4
6,52,45,4
6,91,114,0.5
6,93,123,0.5
6,102,115,0.5
6,70,41,4
6,130,125,0.5
6,14,176,0.5
6,17,17,4
6,44,26,4
6,63,41,4
6,161,133,0.5
6,108,144,4
6,36,167,0.5
6,151,144,4
6,180,38,0.5
6,63,58,4
6,173,138,4
6,123,131,4
6,20,29,0.5
6,18,165,0.5
6,169,150,4
6,106,130,4
6,37,51,4
6,121,140,0.5
6,100,118,4
6,57,53,0.5
6,84,74,4
6,177,47,0.5
6,42,21,4
6,136,120,4
6,53,125,0.5
6,178,17,0.5
6,121,141,4
6,163,123,4
6,168,156,4
6,20,170,0.5
6,146,142,0.5
6,35,20,4
6,36,22,0.5
6,15,32,4
6,38,36,4
6,24,27,4
6,159,147,4
6,21,36,0.5
6,78,40,4
6,162,150,4
6,7,40,0.5
6,68,147,0.5
6,49,28,4
6,18,36,4
6,92,91,4
6,58,22,0.5
6,34,21,0.5
6,143,146,4
6,122,135,0.5
6,175,32,0.5
6,96,108,4
6,144,32,0.5
6,49,44,0.5
6,62,65,4
6,130,138,0.5
6,147,134,0.5
6,116,138,0.5
6,48,61,0.5
6,39,54,0.5
6,36,27,0.5
6,110,122,0.5
6,107,131,4
6,124,136,0.5
6,68,36,4
6,102,161,0.5
6,61,50,4
6,145,157,0.5
6,7,41,4
6,96,120,0.5
6,70,49,4
6,13,30,4
6,50,22,0.5
6,174,167,4
6,146,163,0.5
6,69,54,0.5
6,4,29,4
6,15,32,4
6,90,55,0.5
6,70,136,0.5
6,136,154,0.5
6,110,163,4
6,113,137,0.5
6,146,152,4
6,21,60,0.5
6,115,124,4
6,96,107,0.5
6,91,98,4
6,8,161,0.5
6,88,122,0.5
6,110,121,0.5
6,75,64,4
6,152,155,4
6,104,151,0.5
6,134,132,0.5
6,114,149,4
6,161,148,0.5
6,134,159,4
6,141,149,0.5
6,28,32,4
6,126,152,4
6,45,61,4
6,40,42,4
6,80,79,4
6,104,112,4
6,38,45,0.5
6,3,164,0.5
6,95,122,4
6,118,135,0.5
6,171,70,0.5
6,33,144,0.5
6,171,175,0.5
6,124,138,4
6,97,86,4
6,27,25,4
6,99,130,0.5
6,125,129,0.5
6,56,60,0.5
6,1,149,4
6,151,163,4
6,78,59,4
6,149,147,4
6,60,54,4
6,19,33,0.5
6,28,19,0.5
6,77,60,4
6,169,138,0.5
6,11,25,4
6,15,41,4
6,117,118,4
6,127,15,4
6,159,146,0.5
6,27,43,4
6,69,72,0.5
6,153,37,0.5
6,100,99,4
6,174,129,4
6,166,171,0.5
6,141,135,4
6,13,17,0.5
6,30,35,0.5
6,168,163,0.5
6,115,124,4
6,96,123,4
6,63,63,4
6,90,103,0.5
6,171,152,4
6,23,29,0.5
6,3,136,0.5
6,93,79,0.5
6,173,3,0.5
6,22,34,0.5
6,75,43,4
6,74,30,0.5
6,140,134,0.5
6,109,136,0.5
6,29,41,0.5
6,149,152,0.5
6,44,19,4
6,38,53,0.5
6,20,44,0.5
6,12,43,0.5
6,134,162,0.5
6,170,150,4
6,156,135,4
6,53,28,0.5
6,178,152,0.5
6,80,68,4
6,115,108,4
6,91,93,0.5
6,116,144,4
6,27,42,0.5
6,70,68,0.5
6,70,47,0.5
6,19,29,0.5
6,177,30,4
6,65,26,0.5
6,145,150,0.5
6,123,132,4
6,107,126,0.5
6,13,26,0.5
6,144,148,0.5
6,39,25,4
6,65,54,4
6,55,45,0.5
6,167,173,0.5
6,96,120,4
6,67,45,4
6,96,112,0.5
6,118,142,4
6,95,134,0.5
6,29,110,0.5
6,58,37,0.5
6,88,39,0.5
6,7,176,4
6,93,112,0.5
6,123,156,4
6,33,31,4
6,34,36,4
6,68,34,4
6,108,143,4
6,41,33,4
6,102,121,4
6,162,155,0.5
6,71,30,0.5
6,74,47,4
6,163,140,0.5
6,173,147,0.5
6,91,129,4
6,75,49,4
6,110,139,4
6,119,55,0.5
6,8,18,0.5
6,43,32,4
6,101,126,4
6,4,10,4
6,121,114,4
6,14,40,4
6,139,119,4
6,130,150,0.5
6,79,148,0.5
6,132,132,4
6,153,142,0.5
6,113,99,0.5
6,44,41,4
6,35,48,4
6,155,129,4
6,108,143,0.5
6,175,132,0.5
6,33,31,4
6,141,134,4
6,152,21,0.5
6,151,133,4
6,67,66,4
6,86,58,4
6,30,33,4
6,111,111,4
6,4,34,4
6,133,123,0.5
6,131,155,0.5
6,54,52,4
6,167,10,0.5
6,57,31,4
6,173,26,4
6,135,132,0.5
6,48,45,0.5
6,140,150,0.5
6,140,162,4
6,142,156,4
6,90,79,4
6,125,140,4
6,27,44,0.5
6,118,119,4
6,42,70,0.5
6,157,156,4
6,173,169,0.5
6,123,141,0.5
6,25,36,4
6,128,161,0.5
6,23,34,4
6,108,133,0.5
6,156,140,4
6,162,170,0.5
6,55,50,4
6,150,149,0.5
6,13,178,0.5
6,133,138,4
6,31,26,4
6,175,162,4
6,6,23,0.5
6,147,141,4
6,176,145,4
6,35,16,4
6,143,167,0.5
6,146,130,0.5
6,165,170,4
6,49,119,0.5
6,10,158,0.5
6,80,55,0.5
6,118,127,0.5
6,19,42,0.5
6,23,140,0.5
6,171,149,4
6,32,58,4
6,122,140,0.5
6,74,48,4
6,68,60,4
6,121,139,4
6,84,136,4
6,104,108,4
6,90,116,4
6,167,140,4
6,110,127,0.5
6,130,50,0.5
6,89,116,0.5
6,16,29,0.5
6,173,155,0.5
6,22,14,4
6,29,46,4
6,49,51,4
6,101,151,0.5
6,102,130,0.5
6,74,56,4
6,117,142,0.5
6,128,123,4
6,95,74,4
6,179,157,4
6,21,55,4
6,105,114,4
6,151,121,0.5
6,78,102,0.5
6,97,88,4
6,91,122,4
6,80,63,4
6,157,139,0.5
6,57,104,0.5
6,17,26,4
6,10,31,0.5
6,80,72,0.5
6,60,38,4
6,116,128,0.5
6,111,113,0.5
6,40,56,0.5
6,122,139,0.5
6,179,159,0.5
6,17,24,4
6,166,131,0.5
6,106,153,0.5
7,67,5,0.5
7,90,80,4
7,117,134,0.5
7,82,41,0.5
7,54,45,0.5
7,22,132,0.5
7,57,63,4
7,56,55,4
7,168,154,4
7,141,135,4
7,112,79,4
7,8,14,4
7,156,124,4
7,67,50,4
7,89,103,0.5
7,136,129,4
7,161,6,4
7,56,51,4
7,64,112,0.5
7,73,80,0.5
7,76,46,4
7,76,117,0.5
7,81,129,0.5
7,100,129,0.5
7,159,43,0.5
7,135,133,4
7,45,26,0.5
7,140,126,4
7,129,50,0.5
7,51,142,0.5
7,98,71,4
7,2,8,0.5
7,103,106,4
7,120,136,4
7,61,135,0.5
7,27,125,0.5
7,170,30,0.5
7,135,123,0.5
7,156,161,4
7,80,124,4
7,16,33,0.5
7,147,171,4
7,20,20,0.5
7,82,129,0.5
7,163,0,0.5
7,3,0,4
7,28,81,0.5
7,168,148,4
7,109,120,4
7,124,148,4
7,89,76,0.5
7,84,67,4
7,67,127,0.5
7,134,130,4
7,21,43,0.5
7,126,126,4
7,94,76,0.5
7,29,47,0.5
7,81,71,4
7,71,68,0.5
7,83,103,0.5
7,128,137,4
7,115,133,4
7,106,111,4
7,139,163,4
7,55,172,0.5
7,45,43,0.5
7,40,33,4
7,91,97,4
7,167,134,4
7,46,89,0.5
7,162,163,4
7,70,60,4
7,130,116,0.5
7,15,28,4
7,87,77,4
7,164,151,4
7,178,171,4
7,8,166,0.5
7,176,109,0.5
7,135,127,4
7,51,67,0.5
7,114,143,0.5
7,71,60,4
7,151,128,4
7,66,68,0.5
7,3,164,4
7,179,1,0.5
7,127,122,0.5
7,47,142,0.5
7,63,105,0.5
7,23,42,0.5
7,6,5,4
7,89,84,4
7,50,40,0.5
7,140,123,0.5
7,29,28,4
7,92,69,0.5
7,135,143,0.5
7,28,23,0.5
7,114,66,0.5
7,57,83,4
7,170,139,4
7,13,169,0.5
7,130,131,0.5
7,8,50,0.5
7,138,128,4
7,135,121,0.5
7,159,170,4
7,71,64,4
7,155,90,0.5
7,69,76,0.5
7,34,25,0.5
7,45,117,0.5
7,102,99,0.5
7,34,54,0.5
7,88,92,0.5
7,135,132,0.5
7,86,88,4
7,37,51,4
7,4,179,4
7,120,136,4
7,8,7,0.5
7,169,15,0.5
7,51,37,4
7,110,102,0.5
7,89,86,4
7,18,26,4
7,120,115,4
7,31,53,0.5
7,72,59,0.5
7,83,119,0.5
7,112,113,4
7,61,71,4
7,106,136,0.5
7,100,122,4
7,120,112,4
7,120,136,4
7,62,58,4
7,163,20,0.5
7,101,99,0.5
7,82,85,4
7,87,85,4
7,19,24,4
7,44,70,0.5
7,79,77,0.5
7,39,49,0.5
7,10,26,0.5
7,47,84,0.5
7,134,139,0.5
7,135,149,4
7,26,55,0.5
7,107,128,0.5
7,169,179,4
7,53,32,0.5
7,112,106,0.5
7,93,93,4
7,117,120,4
7,20,14,4
7,165,160,4
7,115,98,0.5
7,166,175,4
7,100,93,0.5
7,128,134,4
7,58,40,4
7,94,106,4
7,125,141,0.5
7,131,127,4
7,169,13,4
7,27,13,0.5
7,153,165,4
7,120,125,0.5
7,112,101,4
7,64,57,0.5
7,60,47,4
7,113,130,4
7,28,34,4
7,125,129,4
7,157,155,4
7,179,9,0.5
7,129,127,4
7,63,80,4
7,169,84,0.5
7,149,126,0.5
7,16,30,4
7,151,145,4
7,75,94,0.5
7,18,30,4
7,19,141,0.5
7,175,159,0.5
7,131,144,0.5
7,78,138,0.5
7,37,39,4
7,29,115,0.5
7,43,33,4
7,168,158,4
7,69,67,4
7,153,141,0.5
7,179,175,0.5
7,121,106,0.5
7,86,95,4
7,100,106,4
7,16,8,0.5
7,89,76,4
7,31,45,4
7,101,111,4
7,95,98,0.5
7,37,123,0.5
7,51,61,4
7,33,38,4
7,24,56,0.5
7,150,166,0.5
7,172,161,0.5
7,155,134,4
7,130,132,4
7,147,106,0.5
7,175,36,0.5
7,142,137,4
7,28,37,4
7,63,59,4
7,135,57,0.5
7,22,142,0.5
7,13,60,0.5
7,166,112,0.5
7,84,116,0.5
7,48,111,0.5
7,100,93,4
7,86,79,4
7,21,164,4
7,113,108,0.5
7,163,146,4
7,18,34,0.5
7,25,4,0.5
7,71,86,0.5
7,58,65,0.5
7,158,166,4
7,140,124,0.5
7,140,149,4
7,50,43,4
7,100,116,0.5
7,132,83,0.5
7,129,115,0.5
7,109,118,0.5
7,145,155,4
7,71,82,0.5
7,134,121,0.5
7,30,166,4
7,98,86,4
7,117,124,4
7,155,66,0.5
7,42,48,0.5
7,15,33,0.5
7,139,101,0.5
7,89,90,4
7,115,158,0.5
7,130,139,0.5
7,176,8,0.5
7,172,170,0.5
7,50,59,4
7,1,17,0.5
7,66,36,4
7,142,124,0.5
7,32,172,0.5
7,76,65,4
7,43,12,4
7,65,45,4
7,136,143,4
7,134,98,0.5
7,81,72,4
7,122,135,4
7,86,82,4
7,173,162,4
7,96,77,0.5
7,176,23,0.5
7,174,176,0.5
7,135,140,4
7,94,92,4
7,1,13,4
7,98,106,0.5
7,82,65,4
7,167,168,0.5
7,21,19,0.5
7,71,67,4
7,111,143,4
7,141,136,4
7,20,153,4
7,88,107,0.5
7,37,45,4
7,148,149,4
7,4,8,4
7,41,43,4
7,160,135,4
7,37,169,0.5
7,31,30,4
7,98,105,4
7,50,48,4
7,67,107,0.5
7,100,114,4
7,29,19,4
7,49,62,4
7,139,106,0.5
7,164,167,0.5
7,34,113,0.5
7,128,105,0.5
7,41,48,0.5
7,99,95,4
7,23,0,0.5
7,20,19,0.5
7,29,7,0.5
7,178,179,4
7,177,1,0.5
7,166,153,4
7,17,134,0.5
7,167,21,0.5
7,19,31,0.5
7,10,19,4
7,98,92,0.5
7,177,173,4
7,100,98,0.5
7,149,59,0.5
7,7,153,0.5
7,29,37,0.5
7,82,82,4
7,121,100,0.5
7,90,108,0.5
7,17,22,4
7,31,175,0.5
7,85,95,4
7,115,66,0.5
7,97,74,0.5
7,69,103,0.5
7,176,23,0.5
7,122,23,0.5
7,179,161,0.5
7,130,140,4
7,13,15,0.5
7,68,55,0.5
7,162,145,4
7,39,62,0.5
7,63,35,4
7,161,130,0.5
7,65,54,4
7,6,16,0.5
7,102,107,0.5
7,103,108,0.5
7,176,175,4
7,173,169,4
7,94,94,4
7,79,72,4
7,174,160,4
7,154,165,0.5
7,64,56,4
7,16,179,0.5
7,169,22,0.5
7,85,77,0.5
7,110,100,0.5
7,167,158,0.5
7,58,54,4
7,117,140,0.5
7,69,135,0.5
7,15,54,0.5
7,150,137,4
7,97,99,0.5
7,167,166,0.5
7,169,28,0.5
7,72,23,0.5
7,130,152,4
7,9,175,0.5
7,29,40,4
7,131,139,4
7,58,56,4
7,152,6,0.5
7,1,6,4
7,109,89,0.5
7,144,125,4
7,95,90,0.5
7,50,51,4
7,86,90,4
7,99,91,4
7,18,28,4
7,12,9,4
7,69,66,4
7,128,120,0.5
7,115,133,4
7,30,112,0.5
7,17,25,4
7,64,105,0.5
7,170,150,0.5
7,153,67,0.5
7,168,145,4
7,38,68,0.5
7,106,131,4
7,141,138,0.5
7,17,5,0.5
7,126,148,4
7,24,32,0.5
7,81,75,0.5
7,91,130,0.5
7,48,32,0.5
7,118,67,0.5
7,138,116,0.5
7,74,24,0.5
7,80,65,4
7,164,151,0.5
7,20,16,4
7,65,41,4
7,22,141,4
7,154,134,0.5
7,149,149,4
7,91,31,0.5
7,10,13,4
7,154,148,4
7,119,115,4
7,101,114,4
7,10,174,0.5
7,14,34,4
7,31,142,0.5
7,51,40,4
7,103,83,0.5
7,144,135,4
7,19,49,4
7,77,115,0.5
7,40,51,4
7,60,52,0.5
7,163,148,4
7,105,99,4
7,21,150,0.5
7,56,82,0.5
7,98,104,0.5
7,11,149,0.5
7,6,4,4
7,125,124,0.5
7,46,49,0.5
7,22,134,0.5
7,39,78,0.5
7,83,74,0.5
7,127,71,0.5
7,138,146,4
7,93,93,4
7,18,15,0.5
7,23,21,0.5
7,69,135,4
7,124,124,4
7,135,130,4
7,65,52,4
7,137,108,0.5
7,4,174,0.5
7,16,120,0.5
7,153,128,0.5
7,62,52,0.5
7,106,119,4
7,26,51,0.5
7,90,104,4
7,169,141,0.5
7,70,71,4
7,46,52,0.5
7,38,31,4
7,8,35,0.5
7,45,45,4
7,122,115,0.5
7,124,99,0.5
7,35,41,4
7,86,103,0.5
7,110,108,0.5
7,55,33,4
7,38,37,0.5
7,87,68,0.5
7,101,102,4
7,39,60,4
7,63,66,4
7,50,25,4
7,43,41,0.5
7,162,134,4
7,127,143,0.5
7,40,21,4
7,110,123,4
7,34,56,0.5
7,41,45,0.5
7,54,95,0.5
7,13,166,0.5
7,71,52,4
7,91,97,4
7,54,161,0.5
7,43,128,0.5
7,113,114,0.5
7,47,55,4
7,154,141,4
7,143,131,4
7,93,61,0.5
7,145,130,4
7,180,174,4
7,13,39,4
7,153,166,0.5
7,135,150,4
7,174,166,4
7,76,50,4
7,75,44,4
7,2,25,0.5
7,131,123,4
7,132,135,4
7,38,44,4
7,25,162,0.5
7,140,127,4
7,125,129,4
7,37,38,0.5
7,101,73,0.5
7,13,4,0.5
7,177,1,0.5
7,124,145,4
7,116,123,4
7,15,9,0.5
7,117,151,0.5
7,135,115,4
7,156,163,4
7,73,102,0.5
7,150,124,0.5
7,17,8,4
7,111,99,0.5
7,124,114,0.5
7,134,130,0.5
7,132,129,0.5
7,81,88,0.5
7,38,23,4
7,19,16,4
7,87,76,0.5
7,90,110,0.5
7,134,115,0.5
7,72,109,0.5
7,176,17,4
7,178,4,4
7,47,81,0.5
7,155,176,4
7,21,29,4
7,94,96,4
7,94,102,4
7,55,58,0.5
7,114,66,0.5
7,151,135,4
7,84,42,4
7,88,99,0.5
7,49,59,0.5
7,122,90,0.5
7,130,114,4
7,51,105,0.5
7,130,116,4
7,110,110,4
7,168,163,4
7,168,13,0.5
7,86,102,4
7,29,23,4
7,9,3,0.5
7,44,50,4
7,75,76,4
7,93,105,4
7,69,58,4
7,35,56,4
7,101,123,4
7,17,23,0.5
7,5,34,0.5
7,129,123,4
7,74,80,4
7,60,58,0.5
7,130,137,0.5
7,33,27,0.5
7,158,147,4
7,174,13,0.5
7,131,123,4
7,116,134,4
7,80,117,0.5
7,83,126,4
7,178,174,4
7,126,138,4
7,116,114,4
7,60,38,4
7,46,135,0.5
7,49,30,4
7,17,26,0.5
7,39,43,0.5
7,75,75,4
7,93,94,4
7,127,113,0.5
7,71,106,0.5
7,158,118,0.5
7,111,73,0.5
7,56,43,4
7,169,120,4
7,97,92,0.5
7,42,42,4
7,117,101,0.5
7,20,21,4
7,104,108,0.5
7,82,116,0.5
7,88,88,0.5
7,67,37,4
7,136,136,4
7,134,133,0.5
7,127,140,4
7,8,17,4
7,140,145,4
7,142,125,4
7,34,29,4
7,142,17,0.5
7,140,133,4
7,151,130,4
7,161,156,0.5
7,67,60,0.5
7,70,61,0.5
7,16,33,4
7,49,45,4
7,159,28,0.5
7,28,7,0.5
7,141,106,0.5
7,58,43,0.5
7,9,1,4
7,67,65,4
7,81,74,0.5
7,4,173,0.5
7,165,28,0.5
7,175,177,0.5
7,126,121,0.5
7,132,78,0.5
7,168,166,4
7,147,148,4
7,122,125,4
7,110,79,0.5
7,61,45,4
7,85,81,4
7,120,95,0.5
7,23,38,4
7,164,120,0.5
7,67,73,4
7,13,17,4
7,24,27,0.5
7,161,150,4
7,56,46,4
7,143,147,4
7,22,25,4
7,150,151,4
7,4,172,0.5
7,60,37,4
7,125,144,0.5
7,122,126,4
7,78,87,4
7,40,43,4
7,37,54,4
7,170,166,0.5
7,84,90,0.5
7,20,18,4
7,85,105,0.5
7,117,18,0.5
7,78,80,4
7,99,93,0.5
7,130,99,4
7,168,87,0.5
7,23,38,0.5
7,163,103,0.5
7,143,142,4
7,7,22,0.5
7,132,129,0.5
7,115,119,4
7,118,95,0.5
7,27,19,4
7,82,71,0.5
7,172,12,0.5
7,68,48,4
7,83,77,0.5
7,164,164,0.5
7,12,30,4
7,107,121,0.5
7,166,116,0.5
7,80,74,4
7,148,132,0.5
7,43,127,0.5
7,33,48,4
7,29,34,4
7,123,131,4
7,55,61,4
7,17,160,4
7,3,179,4
7,54,102,0.5
7,147,136,4
7,128,142,4
7,100,97,0.5
7,163,160,0.5
7,29,32,0.5
7,91,72,0.5
7,157,156,4
7,161,132,0.5
7,26,18,4
7,50,64,0.5
7,1,172,0.5
7,34,126,0.5
7,24,145,0.5
7,147,140,0.5
7,1,116,4
7,125,140,0.5
7,12,67,0.5
7,36,66,0.5
7,179,159,0.5
7,127,120,0.5
7,87,97,4
7,140,146,4
7,127,127,0.5
7,82,72,4
7,96,85,4
7,21,28,4
7,12,15,4
7,63,50,4
7,134,137,4
7,89,112,0.5
7,140,148,4
7,67,29,0.5
7,164,133,4
7,47,36,4
7,147,153,0.5
7,95,61,0.5
7,88,76,4
7,159,20,4
7,14,7,4
7,164,167,4
7,7,6,0.5
7,1,10,4
7,21,32,4
7,43,146,0.5
7,163,170,0.5
7,125,133,4
7,127,155,0.5
7,33,34,4
7,100,89,0.5
7,14,15,4
7,161,130,4
7,175,5,4
7,85,83,4
7,89,84,0.5
7,41,122,4
7,94,95,4
7,104,115,0.5
7,147,153,4
7,15,9,4
7,116,102,4
7,62,108,0.5
7,105,104,4
7,66,71,0.5
7,89,100,0.5
7,168,155,0.5
7,89,28,0.5
7,134,140,0.5
7,53,47,4
7,1,178,4
7,53,131,0.5
7,175,179,4
7,180,178,0.5
7,41,88,0.5
7,97,124,4
7,40,19,4
7,7,35,4
7,149,133,4
7,53,133,0.5
7,82,85,4
7,50,46,0.5
7,172,139,4
7,3,3,0.5
7,88,104,4
7,165,162,4
7,130,116,0.5
7,91,75,0.5
7,171,167,4
7,156,164,0.5
7,117,84,0.5
7,110,120,4
7,17,138,0.5
7,43,36,4
7,144,140,4
7,112,117,4
7,31,30,0.5
7,179,137,0.5
7,43,41,4
7,177,151,0.5
7,48,43,0.5
7,102,112,4
7,87,96,0.5
7,164,157,4
7,176,162,4
7,157,74,0.5
7,8,52,0.5
7,89,75,0.5
7,116,110,4
7,13,48,0.5
7,25,40,4
7,70,114,0.5
7,13,32,4
7,28,48,0.5
7,27,56,0.5
7,42,39,4
7,56,56,4
7,138,142,4
7,82,82,0.5
7,88,79,4
7,88,87,4
7,134,133,4
7,133,143,4
7,71,48,4
7,158,129,0.5
7,44,36,4
7,81,67,0.5
7,171,147,4
7,119,120,4
7,151,148,4
7,4,148,4
7,17,35,4
7,180,16,0.5
7,132,125,4
7,162,114,4
7,85,63,0.5
7,55,59,4
7,1,150,0.5
7,122,121,4
7,138,50,0.5
7,159,140,4
7,149,158,4
7,126,112,0.5
8,58,52,0.5
8,97,113,0.5
8,17,14,4
8,21,3,4
8,25,5,0.5
8,123,134,0.5
8,90,50,0.5
8,35,43,4
8,90,41,0.5
8,27,24,4
8,10,21,4
8,154,168,0.5
8,101,88,4
8,168,173,0.5
8,126,105,0.5
8,105,96,4
8,147,179,0.5
8,159,165,0.5
8,179,172,0.5
8,1,178,4
8,156,170,0.5
8,111,129,0.5
8,179,179,4
8,95,81,4
8,87,84,0.5
8,145,132,0.5
8,42,55,4
8,90,85,4
8,163,156,4
8,104,85,0.5
8,153,161,0.5
8,133,147,4
8,106,104,4
8,45,35,0.5
8,120,124,0.5
8,16,23,0.5
8,113,108,0.5
8,119,111,0.5
8,132,117,4
8,161,166,4
8,177,4,4
8,139,155,4
8,105,132,0.5
8,168,10,4
8,105,100,4
8,4,170,0.5
8,22,176,0.5
8,156,142,4
8,88,86,4
8,153,162,0.5
8,38,28,4
8,100,103,0.5
8,114,101,0.5
8,6,179,4
8,111,97,0.5
8,66,60,4
8,9,2,4
8,89,95,4
8,35,15,0.5
8,23,29,0.5
8,37,56,4
8,27,48,4
8,35,52,0.5
8,8,13,4
8,115,106,4
8,51,70,4
8,97,93,4
8,126,133,0.5
8,90,93,0.5
8,97,80,0.5
8,81,84,4
8,23,37,4
8,89,90,0.5
8,154,152,4
8,158,168,0.5
8,49,64,0.5
8,38,31,0.5
8,102,99,0.5
8,116,106,4
8,76,47,0.5
8,38,169,0.5
8,171,10,0.5
8,15,9,4
8,20,32,0.5
8,26,37,0.5
8,30,37,0.5
8,112,109,0.5
8,104,105,0.5
8,10,177,0.5
8,168,167,0.5
8,132,134,4
8,133,107,0.5
8,12,14,4
8,155,152,0.5
8,169,155,4
8,178,14,0.5
8,155,161,0.5
8,142,150,0.5
8,93,90,4
8,32,8,0.5
8,72,74,0.5
8,25,18,0.5
8,6,4,4
8,170,177,4
8,55,55,0.5
8,54,78,0.5
8,60,55,0.5
8,85,73,0.5
8,117,130,0.5
8,5,165,0.5
8,152,152,4
8,101,103,4
8,154,156,0.5
8,63,47,0.5
8,81,84,4
8,10,6,0.5
8,32,41,4
8,120,114,4
8,60,79,4
8,162,160,4
8,22,9,0.5
8,178,1,4
8,98,88,0.5
8,128,131,4
8,180,178,4
8,52,56,4
8,75,66,4
8,84,80,4
8,138,166,0.5
8,148,155,4
8,19,18,4
8,33,37,4
8,65,56,4
8,11,14,0.5
8,94,86,4
8,61,80,0.5
8,32,51,4
8,38,41,4
8,163,155,4
8,122,113,4
8,85,92,0.5
8,165,144,0.5
8,19,14,4
8,135,152,0.5
8,133,121,4
8,102,94,4
8,34,36,4
8,108,124,0.5
8,54,43,4
8,25,26,0.5
8,39,36,0.5
8,162,153,4
8,13,11,0.5
8,44,41,4
8,10,4,0.5
8,80,84,0.5
8,3,175,0.5
8,162,165,4
8,36,29,4
8,17,20,0.5
8,56,82,0.5
8,83,158,0.5
8,19,20,4
8,180,0,4
8,60,53,4
8,54,45,0.5
8,12,18,0.5
8,54,50,4
8,9,12,4
8,91,95,4
8,138,140,0.5
8,114,141,0.5
8,17,5,0.5
8,15,0,0.5
8,140,139,0.5
8,163,150,0.5
8,97,98,4
8,20,28,4
8,149,159,0.5
8,61,64,0.5
8,53,58,4
8,135,130,0.5
8,2,1,4
8,9,175,0.5
8,121,117,4
8,109,111,4
8,95,95,4
8,132,143,4
8,128,143,0.5
8,141,140,4
8,52,68,4
8,125,136,0.5
8,101,83,0.5
8,72,63,4
8,12,10,0.5
8,141,136,4
8,61,51,4
8,110,105,0.5
8,134,114,0.5
8,19,27,4
8,24,19,0.5
8,99,101,4
8,88,93,4
8,161,161,4
8,144,155,4
8,133,142,0.5
8,10,7,4
8,14,8,4
8,16,6,0.5
8,144,138,4
8,170,165,4
8,124,122,0.5
8,24,9,0.5
8,131,111,0.5
8,20,31,4
8,22,141,0.5
8,116,104,4
8,60,54,4
8,118,128,4
8,135,150,0.5
8,105,101,4
8,134,128,0.5
8,43,66,0.5
8,133,119,0.5
8,175,138,0.5
8,157,168,4
8,16,24,4
8,66,64,4
8,67,74,0.5
8,124,133,4
8,108,109,4
8,143,133,0.5
8,67,68,4
8,38,52,0.5
8,16,5,0.5
8,139,125,4
8,38,53,0.5
8,70,61,0.5
8,100,110,4
8,42,36,0.5
8,116,108,4
8,88,78,0.5
8,28,23,0.5
8,141,143,4
8,19,17,0.5
8,53,56,4
8,43,23,0.5
8,96,101,4
8,17,11,0.5
8,73,61,4
8,19,18,4
8,21,19,4
8,142,140,4
8,53,53,4
8,109,98,4
8,174,173,4
8,78,76,4
8,126,100,0.5
8,137,131,0.5
8,78,72,4
8,118,104,4
8,20,12,0.5
8,169,177,0.5
8,34,28,4
8,48,39,0.5
8,144,164,0.5
8,88,93,4
8,139,131,0.5
8,72,69,0.5
8,50,47,4
8,7,2,4
8,122,128,4
8,78,83,4
8,82,85,4
8,110,106,0.5
8,11,178,4
8,57,50,4
8,140,144,0.5
8,126,142,0.5
8,23,25,0.5
8,24,13,4
8,17,16,0.5
8,2,2,0.5
8,77,87,0.5
8,119,109,4
8,131,110,0.5
8,96,101,4
8,20,50,0.5
8,114,112,4
8,23,34,0.5
8,25,35,0.5
8,18,26,4
8,26,19,0.5
8,31,41,0.5
8,36,12,0.5
8,58,44,0.5
8,57,39,4
8,40,151,0.5
8,46,40,4
8,161,155,4
8,127,141,0.5
8,101,104,4
8,34,32,4
8,39,38,4
8,14,25,4
8,165,155,4
8,128,103,4
8,101,101,4
8,57,71,4
8,30,28,4
8,113,92,0.5
8,178,172,0.5
8,31,22,4
8,47,42,4
8,72,69,4
8,14,0,0.5
8,124,175,0.5
8,73,79,0.5
8,177,158,0.5
8,73,76,4
8,112,123,4
8,28,25,0.5
8,69,66,0.5
8,30,32,4
8,137,126,0.5
8,157,164,4
8,64,82,0.5
8,124,117,4
8,53,56,4
8,96,82,4
8,150,149,4
8,108,92,4
8,61,56,4
8,54,45,4
8,82,102,0.5
8,77,87,4
8,65,91,0.5
8,101,99,4
8,134,176,0.5
8,77,68,0.5
8,78,28,0.5
8,23,29,0.5
8,5,176,4
8,53,23,0.5
8,58,128,0.5
8,118,135,4
8,173,170,4
8,169,159,4
8,83,76,0.5
8,44,1,0.5
8,138,128,0.5
8,137,125,0.5
8,134,126,4
8,134,134,0.5
8,20,28,4
8,123,127,4
8,84,174,0.5
8,39,26,0.5
8,18,177,0.5
8,149,145,4
8,32,37,4
8,30,51,0.5
8,120,118,0.5
8,161,150,0.5
8,93,75,0.5
8,127,117,4
8,28,33,0.5
8,172,172,0.5
8,98,88,0.5
8,123,103,4
8,7,8,4
8,146,155,4
8,135,160,4
8,22,31,4
8,95,95,0.5
8,59,60,4
8,99,95,0.5
8,72,68,4
8,75,66,4
8,33,46,4
8,46,45,4
8,4,4,4
8,167,169,4
8,118,130,0.5
8,168,171,0.5
8,30,17,0.5
8,166,3,0.5
8,144,134,4
8,104,157,0.5
8,80,77,4
8,47,52,4
8,136,134,0.5
8,42,43,0.5
8,12,21,0.5
8,139,165,0.5
8,121,131,0.5
8,129,143,4
8,116,131,0.5
8,76,74,4
8,71,79,4
8,147,161,4
8,58,60,0.5
8,147,158,4
8,143,142,0.5
8,154,152,4
8,92,87,0.5
8,115,104,4
8,172,0,0.5
8,80,85,4
8,11,14,4
8,157,3,0.5
8,114,139,0.5
8,64,82,0.5
8,180,15,0.5
8,41,28,0.5
8,118,86,0.5
8,109,106,0.5
8,70,78,4
8,26,13,0.5
8,5,13,4
8,76,65,4
8,34,48,0.5
8,131,162,0.5
8,67,21,0.5
8,152,4,0.5
8,133,161,0.5
8,103,164,4
8,32,34,4
8,173,166,4
8,48,57,4
8,167,162,4
8,41,9,0.5
8,68,84,4
8,16,13,4
8,116,101,4
8,33,17,0.5
8,9,167,0.5
8,131,135,4
8,63,67,4
8,119,111,4
8,70,80,4
8,113,100,0.5
8,4,7,4
8,164,160,4
8,145,139,4
8,135,138,4
8,147,159,0.5
8,69,63,4
8,112,118,0.5
8,104,97,4
8,96,106,4
8,50,58,0.5
8,45,62,0.5
8,82,90,0.5
8,41,43,4
8,145,136,0.5
8,178,0,4
8,6,12,4
8,97,97,0.5
8,16,5,0.5
8,145,167,0.5
8,179,177,4
8,13,8,0.5
8,170,167,4
8,4,0,0.5
8,124,169,0.5
8,142,89,0.5
8,97,84,0.5
8,160,173,4
8,162,158,0.5
8,113,100,4
8,25,42,0.5
8,40,24,0.5
8,33,39,0.5
8,8,179,0.5
8,20,12,4
8,111,114,4
8,170,175,0.5
8,64,81,0.5
8,74,3,0.5
8,178,171,0.5
8,171,174,4
8,122,125,0.5
8,178,177,4
8,139,1,0.5
8,61,53,4
8,120,176,0.5
8,44,40,0.5
8,54,46,4
8,123,140,0.5
8,96,99,4
8,75,76,0.5
8,109,123,0.5
8,136,76,0.5
8,106,101,0.5
8,100,146,0.5
8,106,103,4
8,93,103,4
8,15,9,0.5
8,130,135,4
8,180,172,0.5
8,64,70,0.5
8,175,174,4
8,63,66,4
8,160,164,4
8,82,85,4
8,75,69,0.5
8,40,48,4
8,23,0,0.5
8,56,57,4
8,131,128,4
8,141,129,4
8,125,125,4
8,2,0,0.5
8,152,155,4
8,167,160,4
8,139,148,4
8,8,5,4
8,69,59,4
8,127,118,0.5
8,132,116,0.5
8,41,32,4
8,49,62,0.5
8,122,121,4
8,86,91,4
8,113,108,0.5
8,43,56,4
8,32,62,0.5
8,150,179,0.5
8,139,136,0.5
8,169,150,0.5
8,20,11,0.5
8,33,17,0.5
8,18,17,0.5
8,89,82,4
8,35,29,0.5
8,162,165,0.5
8,18,18,0.5
8,8,95,0.5
8,101,94,4
8,140,133,4
8,57,57,4
8,33,42,4
8,62,40,0.5
8,38,45,0.5
8,92,162,0.5
8,164,173,0.5
8,114,93,0.5
8,19,5,4
8,71,46,0.5
8,10,165,0.5
8,91,125,0.5
8,78,8,0.5
8,180,177,4
8,147,169,0.5
8,88,80,4
8,162,90,4
8,25,21,0.5
8,71,83,0.5
8,167,17,0.5
8,166,178,4
8,129,8,0.5
8,112,110,4
8,62,61,4
8,169,150,4
8,23,84,0.5
8,132,112,0.5
8,117,113,4
8,150,166,4
8,72,65,0.5
8,135,135,4
8,151,136,4
8,59,59,4
8,100,104,4
8,177,2,4
8,99,83,4
8,60,75,4
8,112,113,4
8,65,75,4
8,137,153,0.5
8,75,83,4
8,89,80,4
8,126,115,4
8,176,7,4
8,59,39,4
8,151,173,4
8,134,167,0.5
8,172,8,0.5
8,6,177,0.5
8,65,47,0.5
8,120,53,0.5
8,51,53,4
8,42,48,4
8,129,112,0.5
8,113,111,4
8,107,100,4
8,119,112,4
8,9,1,4
8,63,32,0.5
8,82,79,4
8,44,164,0.5
8,129,179,0.5
8,155,167,4
8,51,47,4
8,132,94,0.5
8,25,26,4
8,151,159,4
8,25,7,0.5
8,106,102,0.5
8,66,43,0.5
8,146,154,0.5
8,91,169,0.5
8,89,83,0.5
8,158,166,4
8,64,79,4
8,81,72,4
8,174,174,4
8,8,6,0.5
8,176,179,0.5
8,35,16,4
8,121,122,4
8,106,106,0.5
8,122,119,4
8,65,68,4
8,112,97,4
8,147,150,0.5
8,4,3,4
8,16,15,4
8,176,176,4
8,118,148,0.5
8,42,33,0.5
8,73,57,4
8,22,46,0.5
8,49,67,0.5
8,47,49,4
8,60,85,0.5
8,28,21,4
8,63,58,4
8,22,5,0.5
8,160,148,4
8,17,4,4
8,168,176,0.5
8,72,65,4
8,9,155,0.5
8,62,56,4
8,133,142,4
8,144,156,0.5
8,99,78,4
8,124,118,0.5
8,161,173,0.5
8,10,10,4
8,55,55,4
8,9,5,0.5
8,36,44,4
8,130,87,0.5
8,130,140,4
8,159,147,4
8,105,86,0.5
8,13,25,0.5
8,167,156,4
8,145,168,0.5
8,52,26,0.5
8,98,123,0.5
8,178,4,0.5
8,129,155,0.5
8,152,163,0.5
8,78,86,0.5
8,85,80,4
8,101,93,0.5
8,49,65,4
8,135,108,4
8,91,77,0.5
8,117,109,0.5
8,56,100,0.5
8,25,24,0.5
8,86,105,0.5
8,66,73,4
8,142,155,0.5
8,141,140,4
8,121,128,0.5
8,25,29,4
8,4,1,0.5
8,101,89,4
8,55,68,4
8,170,172,0.5
8,177,164,0.5
8,52,42,4
8,145,149,0.5
8,162,163,4
8,108,102,4
8,160,174,0.5
8,170,157,4
8,99,95,4
8,132,104,0.5
8,104,108,4
8,5,4,0.5
8,81,76,0.5
8,117,122,0.5
8,94,94,0.5
8,68,63,0.5
8,169,175,0.5
8,150,157,0.5
8,153,67,0.5
8,68,72,4
8,107,96,4
8,158,144,0.5
8,169,161,0.5
8,121,112,4
8,38,31,0.5
8,118,130,0.5
8,13,21,4
8,74,88,4
8,121,109,0.5
8,169,173,4
8,146,160,0.5
8,88,94,4
8,137,114,4
8,76,68,4
8,175,172,4
8,178,175,0.5
8,156,161,4
8,70,60,4
8,82,82,0.5
8,45,49,0.5
8,142,144,0.5
8,159,154,4
8,165,168,0.5
8,101,100,4
8,108,92,4
8,27,29,0.5
8,162,77,0.5
8,82,90,4
8,38,57,4
8,162,151,4
8,138,127,4
8,159,163,0.5
8,52,39,0.5
8,122,131,4
8,120,126,4
8,23,38,4
8,74,79,4
8,50,48,0.5
8,130,118,4
8,52,53,4
8,162,147,4
8,149,156,4
8,71,57,0.5
8,90,83,0.5
8,126,119,4
8,151,134,4
8,110,96,0.5
8,104,119,0.5
8,59,76,4
8,83,70,0.5
8,129,129,4
8,160,163,0.5
8,130,118,4
8,4,8,4
8,122,112,4
8,79,55,0.5
8,79,79,4
8,22,25,4
8,147,150,4
8,59,71,4
8,45,67,0.5
8,62,42,0.5
8,68,62,4
8,99,72,0.5
8,102,103,0.5
8,72,83,4
8,72,68,0.5
8,93,91,0.5
8,119,104,4
8,172,170,4
8,131,124,4
8,73,69,4
8,150,159,0.5
8,25,28,4
8,11,7,4
8,16,16,4
8,30,8,0.5
8,59,55,4
8,55,13,0.5
8,3,17,4
8,98,167,0.5
8,18,13,0.5
8,27,21,4
8,114,109,0.5
8,155,104,0.5
8,176,170,4
8,103,87,0.5
8,180,2,0.5
8,100,78,4
8,93,95,0.5
8,60,89,0.5
8,78,84,4
8,89,95,4
8,13,11,0.5
8,160,161,0.5
8,12,16,4
8,79,75,0.5
8,149,152,4
8,72,46,0.5
8,111,155,0.5
8,148,159,0.5
8,160,167,4
8,168,156,4
8,35,20,0.5
8,47,38,0.5
8,162,0,0.5
8,107,120,0.5
8,91,95,4
8,111,81,0.5
8,148,126,4
8,96,84,4
8,37,49,0.5
8,82,68,0.5
8,78,75,4
8,174,176,0.5
8,112,112,4
8,126,98,0.5
9,26,35,0.5
9,155,146,0.5
9,59,40,4
9,118,127,0.5
9,114,109,4
9,179,164,4
9,38,64,4
9,152,136,4
9,85,79,4
9,84,83,4
9,8,23,4
9,122,125,4
9,112,114,4
9,24,38,4
9,175,162.5,0.5
9,28,50,0.5
9,36,49.75,4
9,111,128,0.5
9,39,48,4
9,140,127,4
9,115,132,0.5
9,96,99.5,4
9,15,36,4
9,1,175,0.5
9,164,149,4
9,41,51.75,4
9,175,157,0.5
9,135,123.25,0.5
9,79,74.25,4
9,78,81.5,4
9,23,58,0.5
9,104,111,0.5
9,38,52.5,4
9,124,127,4
9,16,158,0.5
9,98,92,4
9,69,61,4
9,112,124,4
9,118,108.25,4
9,31,63.25,0.5
9,72,81,0.5
9,92,110,0.5
9,33,57.5,4
9,61,39,0.5
9,122,122,0.5
9,115,124,4
9,35,40,4
9,66,70,4
9,167,160.75,4
9,87,87.5,0.5
9,180,166.5,0.5
9,140,158.25,0.5
9,24,40,4
9,161,120,0.5
9,83,84.25,4
9,130,138,4
9,135,125,4
9,153,121,4
9,86,81.75,4
9,131,122,0.5
9,155,143,0.5
9,175,157,0.5
9,72,86,4
9,160,144,0.5
9,24,40,4
9,81,86,0.5
9,43,44.5,4
9,144,140.5,4
9,75,72,4
9,106,95,4
9,152,133,0.5
9,152,138,0.5
9,116,122,4
9,29,43,4
9,171,170,0.5
9,65,48,0.5
9,51,62,4
9,96,92,0.5
9,89,107,0.5
9,118,98,0.5
9,142,115,0.5
9,76,39,0.5
9,112,108,0.5
9,133,128,4
9,11,26,4
9,132,130,0.5
9,94,117,4
9,15,32,4
9,19,162,0.5
9,87,105,4
9,152,112,0.5
9,98,89,0.5
9,85,89,4
9,40,44,4
9,161,156.75,4
9,130,126,4
9,111,122.25,4
9,109,130,0.5
9,15,34,0.5
9,90,77,0.5
9,63,88,0.5
9,166,106,0.5
9,166,141,4
9,95,108.25,4
9,12,28,4
9,9,21,0.5
9,168,134,0.5
9,119,131,4
9,75,91,0.5
9,58,52.5,4
9,27,43,0.5
9,154,167,0.5
9,76,79,0.5
9,101,84.75,0.5
9,118,106.25,0.5
9,62,34,0.5
9,48,61.75,4
9,74,69.75,4
9,133,114.75,4
9,156,154,0.5
9,59,62.25,0.5
9,47,47.25,0.5
9,120,119,4
9,16,32,0.5
9,34,36,4
9,82,73.75,4
9,114,116.25,4
9,28,34,4
9,98,113.75,0.5
9,47,43,0.5
9,117,102,4
9,106,113,4
9,19,9,4
9,57,58,4
9,152,169.75,0.5
9,177,174.25,0.5
9,177,178,4
9,150,149,4
9,6,162,0.5
9,24,16,0.5
9,148,134,0.5
9,114,115,4
9,171,159,4
9,44,68,0.5
9,179,178,0.5
9,133,124,4
9,13,63,4
9,45,49,4
9,34,46,4
9,120,133,0.5
9,68,74,4
9,20,55,0.5
9,103,100,0.5
9,85,78,0.5
9,137,138,4
9,65,66,0.5
9,73,60,4
9,139,129,4
9,118,107,0.5
9,151,120,4
9,8,40,4
9,133,137,0.5
9,163,162,4
9,129,129,0.5
9,58,32,0.5
9,62,64.5,4
9,109,113.75,0.5
9,57,59,4
9,21,40,4
9,134,134,0.5
9,50,51,0.5
9,172,8,0.5
9,3,4,0.5
9,122,118,0.5
9,19,38.5,4
9,142,130,0.5
9,131,119.75,0.5
9,69,65.75,0.5
9,6,17,0.5
9,140,146.25,0.5
9,142,123.75,4
9,128,107,4
9,172,175,0.5
9,35,57,4
9,49,58.25,0.5
9,128,128.5,4
9,25,30.5,4
9,82,97.25,0.5
9,115,104.25,0.5
9,60,88,0.5
9,134,141.75,0.5
9,153,157,4
9,59,76.75,0.5
9,66,56,0.5
9,132,120.25,0.5
9,132,117.5,0.5
9,88,91.25,4
9,171,96,0.5
9,57,87,0.5
9,126,124.25,0.5
9,22,58,4
9,109,116,4
9,164,160,0.5
9,137,124,4
9,159,137,0.5
9,120,122,4
9,135,114,0.5
9,174,28,0.5
9,179,7,0.5
9,104,134,4
9,120,111,4
9,51,54,4
9,156,143,4
9,150,138,4
9,57,71,0.5
9,71,79,0.5
9,32,76,4
9,141,119,4
9,24,36,4
9,117,122,4
9,166,152,4
9,106,106,4
9,20,39,0.5
9,65,96.25,0.5
9,95,95,4
9,20,30,0.5
9,38,37,4
9,54,44,0.5
9,102,98,4
9,11,22,4
9,25,24,0.5
9,94,104,0.5
9,48,71,0.5
9,148,137,0.5
9,117,108,0.5
9,76,80.75,4
9,135,79,0.5
9,9,6.5,0.5
9,26,18,4
9,138,130,0.5
9,39,53.25,0.5
9,59,52,4
9,121,136,0.5
9,54,54,0.5
9,169,124,0.5
9,59,33,0.5
9,12,23,4
9,119,97.5,0.5
9,87,96,0.5
9,17,20,4
9,66,61,0.5
9,5,7,4
9,131,106,0.5
9,130,105,4
9,112,114,0.5
9,96,97.75,0.5
9,87,94,0.5
9,172,169,0.5
9,60,66.5,0.5
9,137,134,4
9,130,109,4
9,138,110,0.5
9,94,89,4
9,95,103.25,4
9,123,101.5,4
9,63,64,0.5
9,87,95.75,4
9,159,126.5,4
9,172,7.5,0.5
9,39,34,4
9,130,108,4
9,111,106.25,0.5
9,178,6.25,4
9,105,94.75,4
9,133,106.75,4
9,68,68.25,4
9,94,86.5,4
9,20,8,0.5
9,19,14.5,4
9,104,105.75,4
9,148,118.75,4
9,76,57,4
9,91,78,0.5
9,78,74.5,0.5
9,27,37,0.5
9,108,105.75,4
9,14,19,0.5
9,166,170,4
9,145,148.25,0.5
9,76,52,0.5
9,38,54.25,4
9,129,133.25,0.5
9,60,64.25,4
9,175,171,0.5
9,25,22.25,4
9,123,124.75,0.5
9,89,93.5,4
9,84,97,0.5
9,42,38.75,4
9,11,4.75,0.5
9,28,27.25,4
9,82,17,0.5
9,37,32.5,4
9,135,126.25,0.5
9,16,20.5,4
9,45,49.5,4
9,148,137.75,4
9,72,40,4
9,175,61.5,0.5
9,158,143.5,0.5
9,35,69,4
9,26,58.75,0.5
9,14,23.5,0.5
9,148,135,0.5
9,12,22.5,0.5
9,3,19,0.5
9,83,95,0.5
9,80,91.25,4
9,65,87.5,0.5
9,34,67.25,0.5
9,68,77.75,0.5
9,62,54,0.5
9,38,30.75,0.5
9,89,93.25,4
9,131,122.5,0.5
9,37,58,4
9,108,116.75,0.5
9,103,126.5,0.5
9,159,127.5,0.5
9,113,112,4
9,179,5,4
9,168,156.25,4
9,53,63,4
9,153,158.75,0.5
9,108,95,4
9,159,154.75,0.5
9,129,60,0.5
9,5,8.75,0.5
9,141,128,0.5
9,64,45.5,0.5
9,40,56,4
9,113,113.75,0.5
9,19,31,4
9,27,25,0.5
9,30,47.75,0.5
9,99,108.25,0.5
9,3,11.75,4
9,18,8.75,0.5
9,78,76.5,4
9,177,155,4
9,122,107.25,4
9,141,113,0.5
9,68,107.5,0.5
9,90,86,4
9,48,40.25,4
9,27,28.25,0.5
9,164,167.75,4
9,71,75,4
9,39,33,0.5
9,108,110,4
9,109,109,0.5
9,80,81,0.5
9,5,172,0.5
9,153,138,4
9,45,38,4
9,155,138,4
9,83,83.5,0.5
9,47,137,4
9,161,158,0.5
9,41,26,0.5
9,157,130,4
9,49,52,4
9,124,140,0.5
9,100,89,0.5
9,130,109,0.5
9,56,64,0.5
9,164,131,0.5
9,63,53,0.5
9,89,106,0.5
9,175,172,0.5
9,129,100,0.5
9,152,135,0.5
9,70,74,4
9,29,51,0.5
9,115,110,0.5
9,79,72,0.5
9,4,9,0.5
9,151,12,0.5
9,2,5,0.5
9,18,1,0.5
9,30,20,4
9,175,159,4
9,150,122,4
9,30,16,0.5
9,34,26,0.5
9,115,105,4
9,57,76,0.5
9,152,138,0.5
9,167,146,0.5
9,57,68,4
9,49,56,4
9,162,169,0.5
9,59,55,4
9,136,117,0.5
9,42,48,4
9,151,127,4
9,126,131,0.5
9,25,21,0.5
9,89,60,0.5
9,98,48,0.5
9,168,160,0.5
9,43,39,4
9,3,3,4
9,64,74,4
9,41,66,4
9,16,18,4
9,169,170,4
9,77,60,0.5
9,133,108.25,0.5
9,104,94.5,4
9,10,22,4
9,117,101,0.5
9,133,67,0.5
9,144,115,0.5
9,80,75,4
9,94,87,0.5
9,42,30,4
9,124,116.75,4
9,56,75,0.5
9,79,77.5,4
9,109,106.5,4
9,152,125,4
9,147,138,0.5
9,124,111,4
9,111,105,0.5
9,19,27.75,4
9,39,37,4
9,146,141,0.5
9,90,90.25,4
9,132,142,0.5
9,70,70.25,0.5
9,58,54,0.5
9,132,132.75,0.5
9,157,122.25,0.5
9,126,134.25,4
9,119,126.25,0.5
9,38,42.5,0.5
9,50,46,4
9,110,109,0.5
9,63,67,4
9,31,32.25,0.5
9,2,15,4
9,132,125,4
9,178,175,4
9,55,159.75,0.5
9,72,78.5,4
9,34,62.5,0.5
9,33,46,4
9,140,134.25,4
9,28,50,0.5
9,168,148.75,4
9,106,134.75,0.5
9,22,44,4
9,126,65.75,4
9,21,51.5,4
9,28,52.75,0.5
9,80,77.5,4
9,100,111.5,0.5
9,86,101.25,0.5
9,150,131.25,4
9,148,157.25,0.5
9,121,113.5,4
9,106,104.75,4
9,79,66.5,4
9,111,101,0.5
9,22,29.75,4
9,134,115.75,0.5
9,178,178.25,0.5
9,67,84.25,4
9,104,108.5,4
9,1,19,0.5
9,169,170,4
9,9,15.5,4
9,134,132,0.5
9,136,131.75,4
9,52,62.25,4
9,102,100.75,0.5
9,102,95.75,4
9,120,94.75,0.5
9,82,78.25,0.5
9,39,69.25,0.5
9,25,37.75,0.5
9,127,120,4
9,83,96.5,4
9,51,70.75,4
9,160,136,0.5
9,46,42.25,4
9,8,8,0.5
9,177,170.75,0.5
9,96,134,0.5
9,149,136,4
9,54,120.5,0.5
9,130,147,0.5
9,146,172,0.5
9,1,9.75,0.5
9,134,139,0.5
9,83,88.5,0.5
9,114,91.25,0.5
9,147,138,4
9,10,15.75,0.5
9,94,82.5,0.5
9,50,75.75,0.5
9,148,128.5,0.5
9,88,99.75,4
9,4,18.5,4
9,161,160.25,4
9,97,98.75,0.5
9,178,4.75,4
9,154,155,0.5
9,85,101.5,0.5
9,128,112.25,4
9,158,164,0.5
9,19,5.25,0.5
9,11,8.25,4
9,75,81.25,4
9,116,80,0.5
9,5,15,4
9,87,83,4
9,89,80.25,4
9,63,67,4
9,124,22.5,0.5
9,2,168,4
9,39,103.25,4
9,148,125.75,4
9,20,26,4
9,20,34.75,4
9,27,33,4
9,56,51.5,4
9,62,60,0.5
9,16,26.25,4
9,176,173.75,4
9,18,70.25,0.5
9,61,74.5,0.5
9,126,119.75,4
9,174,172,0.5
9,18,16,4
9,26,5.25,0.5
9,12,10,0.5
9,12,14,4
9,46,31,4
9,6,172.75,4
9,39,39,0.5
9,77,77,4
9,91,90.25,4
9,124,128,4
9,145,144,4
9,7,176,4
9,99,88,4
9,106,94.5,0.5
9,169,167,4
9,138,163,0.5
9,157,156.25,4
9,5,179.5,0.5
9,135,133.25,0.5
9,74,125.25,0.5
9,21,44.75,4
9,96,109,4
9,95,97.75,4
9,78,97.25,0.5
9,62,61,4
9,114,99.5,0.5
9,108,108.5,0.5
9,7,4.75,0.5
9,120,112.25,0.5
9,93,105,0.5
9,69,85,0.5
9,30,46,4
9,172,23.25,0.5
9,122,107,4
9,107,113.25,4
9,42,57.25,0.5
9,57,63.75,4
9,62,60.5,4
9,19,32.75,4
9,145,120,4
9,179,177.25,4
9,88,97.25,0.5
9,153,125,0.5
9,133,112.25,4
9,80,81,0.5
9,88,83,4
9,113,106,4
9,11,17.5,4
9,145,78,0.5
9,90,84.75,0.5
9,73,115.25,4
9,81,79.75,4
9,87,81.25,4
9,62,72.75,4
9,119,111.25,4
9,164,170,0.5
9,100,101.25,0.5
9,132,124.25,0.5
9,161,160.25,0.5
9,169,150,0.5
9,60,67,4
9,60,92.75,0.5
9,59,68.25,4
9,61,73.5,4
9,127,134,4
9,83,85,0.5
9,2,24.5,0.5
9,34,19.25,0.5
9,133,129,4
9,116,93.75,4
9,2,7.75,4
9,149,151,4
9,142,128.75,4
9,171,172,0.5
9,166,161.75,0.5
9,87,150.25,0.5
9,173,165.25,0.5
9,82,99.75,0.5
9,100,91,4
9,48,86,0.5
9,166,149,4
9,79,84.75,0.5
9,164,160.5,4
9,97,96,4
9,167,107,0.5
9,163,158,4
9,37,66.25,0.5
9,109,113,4
9,168,144,4
9,40,35.25,4
9,38,51.5,4
9,109,159.25,0.5
9,25,34,4
9,54,76.5,4
9,146,130.25,4
9,3,6.75,4
9,168,178.75,0.5
9,30,16.25,0.5
9,150,169,0.5
9,25,31.25,4
9,170,158,4
9,29,24.75,0.5
9,95,103,0.5
9,9,25.5,4
9,135,120.75,4
9,142,170,0.5
9,106,106.75,4
9,80,85,4
9,102,93.25,4
9,18,13.25,0.5
9,178,8,4
9,85,78.25,4
9,151,165.5,0.5
9,137,163.5,0.5
9,91,93.5,0.5
9,26,10.25,4
9,140,144.25,0.5
9,23,21.25,0.5
9,121,113,4
9,179,178,0.5
9,133,133.5,4
9,54,66.75,0.5
9,65,71.75,4
9,128,112,0.5
9,154,128,4
9,10,19.25,0.5
9,127,135.75,0.5
9,158,157,4
9,158,144.75,0.5
9,27,28,4
9,139,118.25,0.5
9,65,81,4
9,58,70,0.5
9,162,169.5,4
9,92,98.25,0.5
9,40,53.5,4
9,58,60.5,4
9,94,92.25,0.5
9,154,159.75,4
9,178,2.25,4
9,149,162.5,4
9,176,167.75,4
9,87,96.25,0.5
9,86,129,4
9,131,128.5,0.5
9,150,130,4
9,166,161.5,4
9,82,86.75,0.5
9,85,78.75,4
9,177,176,4
9,156,172,0.5
9,111,109.5,4
9,143,124.75,4
9,126,135,4
9,127,123.75,0.5
9,10,0,0.5
9,48,56.25,4
9,4,14,4
9,135,138.5,4
9,20,83,0.5
9,129,115,0.5
9,52,72.5,4
9,82,94.25,0.5
9,166,148,4
9,134,133.25,0.5
9,53,67,4
9,79,80.75,0.5
9,45,63.75,0.5
9,121,47,0.5
9,109,109.5,4
9,178,176,0.5
9,37,13.5,4
9,178,9.5,0.5
9,102,96.25,4
9,91,165.5,0.5
9,19,6.5,0.5
9,100,108.5,0.5
9,55,83,0.5
9,85,74.25,0.5
9,77,89.5,0.5
9,13,22.75,4
9,153,144.5,4
9,118,127.75,4
9,9,14.25,0.5
9,136,125,4
9,3,0.5,0.5
9,33,15,0.5
9,85,87.75,4
9,37,125,4
9,163,153.25,4
9,131,126,4
9,73,82.5,4
9,43,59.75,4
9,176,169.5,4
9,23,32,4
9,165,147,4
9,111,127,0.5
9,168,167,0.5
9,12,32,0.5
9,67,43,0.5
9,19,21,0.5
9,126,115,4
9,143,135.75,4
9,170,25.75,0.5
9,37,34.25,0.5
9,62,63.5,4
9,133,126,4
9,98,97,4
9,75,75,4
9,175,166.5,0.5
9,132,67,4
9,148,69.75,0.5
9,19,56.5,0.5
9,159,159.75,4
9,53,130,0.5
9,75,68.75,0.5
9,100,110.75,4
9,114,100.75,4
9,91,90,0.5
9,148,154,4
9,97,94.5,4
9,136,127.5,4
9,161,74.25,4
9,162,139,0.5
9,89,86.75,4
9,93,86.75,0.5
9,122,102,0.5
9,8,11.5,0.5
9,116,107.25,0.5
9,94,99,4
9,92,91,4
9,66,85.5,0.5
9,89,80.5,0.5
9,46,54,4
9,173,171,4
9,46,46.75,4
9,25,24,0.5
9,5,9.75,4
9,24,19,4
9,138,128.25,0.5
9,92,120.5,0.5
9,80,85.5,4
9,87,85,4
9,126,117,4
9,103,107,0.5
9,92,94.75,0.5
9,81,87,4
9,115,100.25,4
9,24,13.25,0.5
9,114,109.75,0.5
9,35,46.5,4
9,116,118.5,4
9,105,112.25,0.5
9,118,99,4
9,4,11.25,0.5
9,109,110.75,4
9,95,84,0.5
9,45,25.5,4
9,43,37.75,4
9,32,18.75,0.5
9,179,0.25,0.5
9,1,0,0.5
9,121,129.5,0.5
9,42,35.5,4
9,173,33.5,0.5
9,143,32.75,4
9,19,31.75,4
9,128,133,0.5
9,135,123,4
9,8,1.25,0.5
9,161,165.5,0.5
9,144,147.75,4
9,148,133.25,0.5
9,82,83.5,0.5
9,160,156.25,0.5
9,93,91.75,0.5
10,177,14,0.5
10,4,144,0.5
10,6,166,4
10,107,91,0.5
10,145,95,0.5
10,174,73,0.5
10,13,32,0.5
10,53,22,4
10,84,99,4
10,83,65,0.5
10,161,146,4
10,67,155,0.5
10,90,100,4
10,117,104,0.5
10,82,79,0.5
10,54,43,4
10,22,40,4
10,57,51,4
10,56,25,0.5
10,168,138,4
10,141,135,0.5
10,112,111,4
10,8,24,0.5
10,156,138,0.5
10,67,80,0.5
10,89,85,4
10,136,141,4
10,161,144,0.5
10,56,51,0.5
10,64,50,0.5
10,73,50,0.5
10,76,96,4
10,76,57,4
10,81,83,0.5
10,100,99,0.5
10,159,159,4
10,135,113,0.5
10,45,32,0.5
10,140,154,0.5
10,129,140,4
10,51,128,0.5
10,98,73,0.5
10,2,8,0.5
10,103,106,0.5
10,120,128,0.5
10,61,43,4
10,27,45,0.5
10,170,144,4
10,135,121,4
10,156,145,4
10,80,22,0.5
10,16,11,0.5
10,147,123,4
10,20,26,4
10,82,89,4
10,163,116,0.5
10,3,142,0.5
10,28,165,0.5
10,168,154,4
10,109,128,4
10,124,132,4
10,89,88,0.5
10,84,77,4
10,67,109,0.5
10,134,52,0.5
10,21,23,0.5
10,126,134,4
10,94,94,4
10,29,55,4
10,81,89,0.5
10,71,64,0.5
10,83,85,0.5
10,128,117,4
10,115,53,4
10,106,101,4
10,139,131,4
10,55,56,0.5
10,45,37,4
10,40,45,0.5
10,91,103,4
10,167,146,0.5
10,46,41,4
10,162,127,0.5
10,70,54,0.5
10,130,130,0.5
10,15,36,4
10,87,101,4
10,164,151,4
10,178,171,4
10,8,30,4
10,176,17,4
10,135,129,4
10,51,57,0.5
10,114,131,4
10,71,54,0.5
10,151,146,0.5
10,66,70,4
10,3,40,0.5
10,179,13,4
10,127,128,4
10,47,46,4
10,63,37,0.5
10,23,102,0.5
10,6,3,4
10,89,72,4
10,50,70,4
10,140,109,4
10,29,80,0.5
10,92,65,0.5
10,135,121,0.5
10,28,33,0.5
10,114,30,0.5
10,57,41,0.5
10,170,137,4
10,13,33,0.5
10,130,135,4
10,8,34,0.5
10,138,132,0.5
10,135,141,0.5
10,159,150,4
10,71,54,4
10,155,146,0.5
10,69,66,0.5
10,34,31,0.5
10,45,39,4
10,102,137,0.5
10,34,40,4
10,88,90,4
10,135,66,0.5
10,86,116,4
10,37,23,0.5
10,4,171,4
10,120,140,0.5
10,8,25,4
10,169,145,0.5
10,51,37,4
10,110,112,0.5
10,89,90,4
10,18,30,4
10,120,131,4
10,31,49,0.5
10,72,55,4
10,83,77,0.5
10,112,103,4
10,61,45,4
10,106,118,4
10,100,126,0.5
10,120,132,0.5
10,120,130,4
10,62,60,4
10,163,136,0.5
10,101,117,4
10,82,75,0.5
10,87,93,4
10,19,50,4
10,44,32,0.5
10,79,63,0.5
10,39,29,0.5
10,10,44,4
10,47,30,4
10,134,133,4
10,135,137,0.5
10,26,23,0.5
10,107,102,4
10,169,9,0.5
10,53,42,0.5
10,112,104,0.5
10,93,93,0.5
10,117,124,0.5
10,20,42,4
10,165,148,0.5
10,115,126,0.5
10,166,149,0.5
10,100,105,4
10,128,126,4
10,58,40,4
10,94,80,0.5
10,125,109,4
10,131,127,0.5
10,169,159,0.5
10,27,23,0.5
10,153,165,0.5
10,120,119,4
10,112,119,4
10,64,43,0.5
10,60,91,0.5
10,113,138,4
10,28,44,0.5
10,125,139,0.5
10,157,139,4
10,179,143,4
10,129,123,0.5
10,63,54,4
10,169,124,4
10,149,120,0.5
10,16,46,4
10,151,131,4
10,75,74,0.5
10,18,32,4
10,19,21,4
10,175,179,4
10,131,114,0.5
10,78,124,0.5
10,37,55,4
10,29,25,4
10,43,47,4
10,168,4,0.5
10,69,21,4
10,153,137,0.5
10,179,177,4
10,121,138,0.5
10,86,35,0.5
10,100,130,0.5
10,16,0,0.5
10,89,52,0.5
10,31,41,4
10,101,123,4
10,95,54,0.5
10,37,21,4
10,51,49,4
10,33,54,0.5
10,24,6,0.5
10,150,146,0.5
10,172,137,0.5
10,155,116,4
10,130,122,0.5
10,147,146,4
10,175,174,0.5
10,142,121,4
10,28,29,0.5
10,63,41,4
10,135,127,4
10,22,60,0.5
10,13,154,0.5
10,166,154,4
10,84,36,0.5
10,48,33,0.5
10,100,75,0.5
10,86,87,4
10,21,48,0.5
10,113,136,4
10,163,32,0.5
10,18,2,0.5
10,25,16,4
10,71,78,4
10,58,41,4
10,158,156,0.5
10,140,110,0.5
10,140,153,0.5
10,50,41,0.5
10,100,104,0.5
10,132,115,0.5
10,129,111,0.5
10,109,122,4
10,145,143,0.5
10,71,32,4
10,134,141,4
10,30,34,4
10,98,70,0.5
10,117,114,0.5
10,155,126,4
10,42,38,4
10,15,33,0.5
10,139,125,4
10,89,46,0.5
10,115,142,0.5
10,130,171,0.5
10,176,172,0.5
10,172,22,0.5
10,50,47,0.5
10,1,9,4
10,66,54,0.5
10,142,138,0.5
10,32,22,0.5
10,76,43,4
10,43,44,4
10,65,45,4
10,136,151,0.5
10,134,140,0.5
10,81,30,0.5
10,122,149,4
10,86,80,0.5
10,173,162,4
10,96,135,4
10,176,151,0.5
10,174,148,4
10,135,152,0.5
10,94,126,4
10,1,153,0.5
10,98,64,0.5
10,82,117,0.5
10,167,140,4
10,21,21,0.5
10,71,51,0.5
10,111,121,0.5
10,141,142,4
10,20,55,4
10,88,43,0.5
10,37,33,0.5
10,148,161,0.5
10,4,18,0.5
10,41,57,4
10,160,153,4
10,37,25,0.5
10,31,34,0.5
10,98,113,4
10,50,18,0.5
10,67,51,4
10,100,124,0.5
10,29,59,0.5
10,49,24,0.5
10,139,140,4
10,164,131,4
10,34,37,4
10,128,129,4
10,41,28,4
10,99,105,0.5
10,23,52,0.5
10,20,23,4
10,29,45,0.5
10,178,177,0.5
10,177,1,4
10,166,149,0.5
10,17,24,4
10,167,135,4
10,19,39,0.5
10,10,7,4
10,98,156,4
10,177,167,4
10,100,114,0.5
10,149,121,0.5
10,7,39,0.5
10,29,33,4
10,82,106,0.5
10,121,130,0.5
10,90,84,0.5
10,17,24,4
10,31,25,4
10,85,95,4
10,115,126,0.5
10,97,106,4
10,69,63,4
10,176,155,0.5
10,122,155,4
10,179,167,0.5
10,130,128,0.5
10,13,19,4
10,68,43,0.5
10,162,135,0.5
10,39,40,0.5
10,63,43,0.5
10,161,172,0.5
10,65,32,0.5
10,6,14,4
10,102,113,4
10,103,138,4
10,176,161,4
10,173,5,0.5
10,94,112,4
10,79,64,4
10,174,154,4
10,154,117,0.5
10,64,28,0.5
10,16,33,4
10,169,174,0.5
10,85,105,4
10,110,126,4
10,167,142,0.5
10,58,38,4
10,117,116,4
10,69,53,0.5
10,15,10,0.5
10,150,127,0.5
10,97,125,4
10,167,0,0.5
10,169,172,4
10,72,51,4
10,130,136,4
10,9,19,4
10,29,30,4
10,131,139,0.5
10,58,22,4
10,152,136,4
10,1,28,0.5
10,109,131,4
10,144,153,4
10,95,66,0.5
10,50,59,4
10,86,40,0.5
10,99,57,0.5
10,18,22,0.5
10,12,1,0.5
10,69,44,4
10,128,132,4
10,115,107,4
10,30,36,4
10,17,53,0.5
10,64,127,4
10,170,24,0.5
10,153,151,4
10,168,171,4
10,38,42,0.5
10,106,151,4
10,141,134,4
10,17,31,0.5
10,126,146,4
10,24,6,0.5
10,81,107,4
10,91,100,4
10,48,32,4
10,118,121,4
10,138,156,0.5
10,74,60,0.5
10,80,111,0.5
10,164,23,0.5
10,20,26,0.5
10,65,55,0.5
10,22,55,0.5
10,154,150,4
10,149,137,4
10,91,107,4
10,10,17,4
10,154,152,0.5
10,119,159,0.5
10,101,98,0.5
10,10,30,0.5
10,14,32,0.5
10,31,16,0.5
10,51,62,4
10,103,115,4
10,144,135,0.5
10,19,27,0.5
10,77,65,4
10,40,39,0.5
10,60,40,4
10,163,148,4
10,105,143,4
10,21,32,4
10,56,24,4
10,98,100,4
10,11,175,0.5
10,6,42,0.5
10,125,122,4
10,46,31,4
10,22,42,0.5
10,39,26,0.5
10,83,22,0.5
10,127,121,0.5
10,138,138,0.5
10,93,95,4
10,18,57,0.5
10,23,41,4
10,69,57,4
10,124,140,4
10,135,134,4
10,65,60,0.5
10,137,138,0.5
10,4,4,4
10,16,32,0.5
10,153,130,4
10,62,50,4
10,106,119,0.5
10,26,21,4
10,90,42,0.5
10,169,161,4
10,70,59,4
10,46,62,4
10,38,61,4
10,8,11,4
10,45,55,4
10,122,127,4
10,124,139,4
10,35,49,4
10,86,91,0.5
10,110,106,4
10,55,55,0.5
10,38,39,0.5
10,87,88,4
10,101,114,0.5
10,39,56,0.5
10,63,50,0.5
10,50,53,0.5
10,43,63,4
10,162,174,0.5
10,127,131,0.5
10,40,23,0.5
10,110,131,0.5
10,34,34,4
10,41,51,4
10,54,59,4
10,13,40,4
10,71,34,0.5
10,91,87,0.5
10,54,47,0.5
10,43,24,4
10,113,100,0.5
10,47,27,4
10,154,17,0.5
10,143,121,0.5
10,93,97,4
10,145,126,0.5
10,180,166,4
10,13,9,0.5
10,153,146,0.5
10,135,20,0.5
10,174,148,4
10,76,114,0.5
10,75,66,4
10,2,5,4
10,131,133,4
10,132,125,0.5
10,38,28,4
10,25,32,4
10,140,123,4
10,125,123,0.5
10,37,50,0.5
10,101,79,0.5
10,13,30,4
10,177,157,4
10,124,115,0.5
10,116,111,0.5
10,15,29,0.5
10,117,133,0.5
10,135,149,4
10,156,149,4
10,73,46,0.5
10,150,160,0.5
10,17,16,0.5
10,111,119,4
10,124,152,4
10,134,138,4
10,132,119,4
10,81,42,0.5
10,38,55,4
10,19,18,4
10,87,104,4
10,90,78,0.5
10,134,133,4
10,72,61,4
10,176,159,4
10,178,36,0.5
10,47,31,0.5
10,155,148,4
10,21,21,0.5
10,94,72,4
10,94,114,4
10,55,32,4
10,114,130,0.5
10,151,135,0.5
10,84,82,0.5
10,88,111,0.5
10,49,41,4
10,122,128,4
10,130,98,0.5
10,51,37,0.5
10,130,130,4
10,110,114,4
10,168,175,4
10,168,145,4
10,86,90,0.5
10,29,39,4
10,9,43,0.5
10,44,38,4
10,75,40,4
10,93,45,0.5
10,69,140,0.5
10,35,12,4
10,101,101,4
10,17,61,4
10,5,32,0.5
10,129,129,0.5
10,74,82,4
10,60,40,0.5
10,130,113,0.5
10,33,55,4
10,158,149,0.5
10,174,145,4
10,131,123,4
10,116,134,4
10,80,111,0.5
10,83,84,4
10,178,32,0.5
10,126,146,4
10,116,128,0.5
10,60,56,4
10,46,35,4
10,49,38,4
10,17,46,4
10,39,49,4
10,75,41,0.5
10,93,134,4
10,127,119,4
10,71,46,4
10,158,144,4
10,111,147,4
10,56,43,0.5
10,169,160,4
10,97,124,4
10,42,54,4
10,117,109,4
10,20,43,0.5
10,104,108,4
10,82,78,4
10,88,90,4
10,67,65,4
10,136,136,0.5
10,134,141,4
10,127,120,0.5
10,8,139,0.5
10,140,167,4
10,142,121,0.5
10,34,43,0.5
10,142,119,4
10,140,131,4
10,151,4,0.5
10,161,10,0.5
10,67,22,0.5
10,70,39,0.5
10,16,27,4
10,49,45,0.5
10,159,6,0.5
10,28,43,4
10,141,138,4
10,58,43,0.5
10,9,25,0.5
10,67,51,0.5
10,81,24,0.5
10,4,167,0.5
10,165,154,0.5
10,175,147,4
10,126,135,0.5
10,132,142,4
10,168,162,4
10,147,156,4
10,122,147,4
10,110,129,4
10,61,45,0.5
10,85,85,0.5
10,120,167,4
10,23,12,4
10,164,130,0.5
10,67,53,4
10,13,29,0.5
10,24,51,0.5
10,161,136,4
10,56,40,0.5
10,143,137,4
10,22,67,4
10,150,129,4
10,4,22,4
10,60,31,4
10,125,146,0.5
10,122,140,4
10,78,79,0.5
10,40,29,4
10,37,32,0.5
10,170,6,0.5
10,84,50,0.5
10,20,24,0.5
10,85,89,4
10,117,136,4
10,78,80,4
10,99,111,0.5
10,130,129,4
10,168,19,0.5
10,23,40,4
10,163,159,0.5
10,143,158,4
10,7,162,4
10,132,151,0.5
10,115,123,4
10,118,127,4
10,27,35,4
10,82,59,4
10,172,0,0.5
10,68,62,4
10,83,91,4
10,164,2,0.5
10,12,8,0.5
10,107,129,4
10,166,16,0.5
10,80,60,0.5
10,148,114,4
10,43,53,4
10,33,36,4
10,29,52,0.5
10,123,151,0.5
10,55,41,4
10,17,160,4
10,3,3,0.5
10,54,28,0.5
10,147,136,0.5
10,128,150,0.5
10,100,19,0.5
10,163,170,4
10,29,142,0.5
10,91,88,4
10,157,134,4
10,161,142,4
10,26,16,0.5
10,50,42,4
10,1,0,4
10,34,28,0.5
10,24,45,4
10,147,140,0.5
10,1,138,4
10,125,136,4
10,12,31,4
10,36,30,0.5
10,179,179,4
10,127,136,0.5
10,87,101,0.5
10,140,152,0.5
10,127,141,0.5
10,82,80,0.5
10,96,103,4
10,21,32,0.5
10,12,53,0.5
10,63,20,0.5
10,134,143,0.5
10,89,96,4
10,140,148,4
10,67,75,0.5
10,164,131,0.5
10,47,50,0.5
10,147,149,0.5
10,95,89,4
10,88,110,0.5
10,159,130,0.5
10,14,29,4
10,164,129,0.5
10,7,16,0.5
10,1,20,4
10,21,8,0.5
10,43,36,0.5
10,163,166,4
10,125,135,4
10,127,135,0.5
10,33,56,4
10,100,97,0.5
10,14,15,0.5
10,161,146,0.5
10,175,159,0.5
10,85,65,0.5
10,89,80,0.5
10,41,64,4
10,94,117,4
10,104,109,4
10,147,163,0.5
10,15,67,4
10,116,134,0.5
10,62,50,0.5
10,105,128,4
10,66,47,0.5
10,89,92,4
10,168,151,4
10,89,106,4
10,134,130,0.5
10,53,51,4
10,1,14,0.5
10,53,17,4
10,175,159,4
10,180,158,4
10,41,26,0.5
10,97,108,0.5
10,40,39,4
10,7,25,4
10,149,141,4
10,53,55,0.5
10,82,95,4
10,50,36,0.5
10,172,147,4
10,3,13,4
10,88,120,0.5
10,165,168,4
10,130,134,4
10,91,77,4
10,171,149,4
10,156,152,4
10,117,120,4
10,110,122,4
10,17,8,0.5
10,43,92,0.5
10,144,126,4
10,112,117,4
10,31,34,0.5
10,179,1,4
10,43,49,0.5
10,177,13,4
10,48,47,0.5
10,102,176,0.5
10,87,4,0.5
10,164,3,0.5
10,176,16,4
10,157,176,0.5
10,8,20,4
10,89,95,4
10,116,134,0.5
10,13,50,4
10,25,82,0.5
10,70,116,0.5
10,13,22,0.5
10,28,38,4
10,27,30,0.5
10,42,105,0.5
10,56,50,4
10,138,136,4
10,82,106,0.5
10,88,101,4
10,88,95,4
10,134,133,0.5
10,133,127,0.5
10,71,72,4
10,158,131,4
10,44,36,4
10,81,73,4
10,171,169,4
10,119,62,0.5
10,151,114,4
10,4,134,0.5
10,17,37,0.5
11,6,90,0.5
11,14,103,0.5
11,36,136,4
11,101,5,4
11,153,115,0.5
11,32,52,4
11,81,81,4
11,100,77,0.5
11,53,14,0.5
11,37,84,0.5
11,73,32,0.5
11,172,178,4
11,25,33,4
11,96,83,0.5
11,16,175,0.5
11,105,140,4
11,74,79,0.5
11,4,170,4
11,33,12,4
11,40,74,0.5
11,137,159,4
11,26,56,4
11,120,136,0.5
11,177,174,4
11,11,2,4
11,171,174,4
11,161,150,0.5
11,73,83,0.5
11,153,159,0.5
11,85,95,4
11,108,106,4
11,22,29,0.5
11,151,155,4
11,175,162,0.5
11,149,160,0.5
11,135,122,4
11,42,47,0.5
11,20,34,0.5
11,69,84,4
11,79,91,0.5
11,126,135,4
11,15,7,0.5
11,70,177,0.5
11,19,13,0.5
11,9,14,4
11,39,46,4
11,141,137,4
11,161,140,0.5
11,138,71,0.5
11,113,101,4
11,179,10,0.5
11,49,75,4
11,159,172,0.5
11,173,153,0.5
11,27,9,0.5
11,49,47,0.5
11,50,68,4
11,177,41,0.5
11,179,163,0.5
11,117,123,4
11,73,17,0.5
11,116,132,0.5
11,150,151,0.5
11,163,165,4
11,33,48,4
11,148,126,4
11,177,179,0.5
11,17,24,4
11,155,128,4
11,93,123,0.5
11,6,1,4
11,2,166,4
11,16,11,4
11,70,95,0.5
11,25,25,4
11,173,143,4
11,58,57,4
11,39,48,4
11,147,151,0.5
11,73,74,4
11,21,38,0.5
11,25,34,0.5
11,143,105,0.5
11,115,99,0.5
11,112,109,0.5
11,1,176,0.5
11,1,6,4
11,52,52,4
11,177,153,0.5
11,110,77,0.5
11,136,139,0.5
11,163,155,4
11,66,41,4
11,50,84,4
11,1,4,0.5
11,136,120,4
11,83,79,4
11,154,129,4
11,86,50,0.5
11,69,80,4
11,170,3,0.5
11,64,46,4
11,50,59,4
11,165,136,0.5
11,5,9,0.5
11,74,62,0.5
11,58,43,0.5
11,151,90,0.5
11,168,156,4
11,166,160,4
11,101,104,4
11,100,101,4
11,173,173,4
11,36,29,0.5
11,118,109,0.5
11,90,95,4
11,120,107,4
11,95,100,4
11,80,92,0.5
11,78,55,4
11,97,127,0.5
11,36,22,0.5
11,109,120,0.5
11,59,23,0.5
11,17,14,0.5
11,72,91,0.5
11,69,112,0.5
11,74,40,4
11,32,144,0.5
11,36,22,0.5
11,36,130,0.5
11,139,121,0.5
11,161,160,4
11,135,66,0.5
11,119,54,0.5
11,161,160,0.5
11,132,106,0.5
11,1,3,4
11,69,56,4
11,64,72,4
11,178,8,4
11,137,126,0.5
11,154,142,0.5
11,111,119,4
11,80,85,4
11,42,12,0.5
11,25,13,0.5
11,122,132,0.5
11,64,50,0.5
11,16,41,4
11,177,166,0.5
11,58,73,4
11,92,76,4
11,5,177,4
11,26,33,4
11,36,14,0.5
11,168,173,4
11,153,140,4
11,38,38,4
11,115,134,4
11,87,69,4
11,20,29,4
11,161,154,0.5
11,34,47,0.5
11,43,59,4
11,78,65,4
11,114,105,4
11,163,134,4
11,137,161,4
11,60,41,4
11,177,4,0.5
11,55,74,0.5
11,38,62,4
11,102,102,0.5
11,155,154,4
11,72,86,4
11,146,147,4
11,146,162,4
11,37,43,4
11,178,85,0.5
11,69,132,0.5
11,120,112,0.5
11,10,36,0.5
11,144,118,0.5
11,134,116,4
11,45,39,0.5
11,33,26,0.5
11,160,144,4
11,45,128,0.5
11,54,72,4
11,18,7,0.5
11,19,29,0.5
11,82,56,4
11,107,111,0.5
11,145,150,0.5
11,131,131,4
11,70,78,0.5
11,52,45,4
11,58,43,0.5
11,80,79,0.5
11,49,69,0.5
11,60,59,4
11,72,130,0.5
11,176,159,4
11,55,64,4
11,64,72,4
11,74,24,0.5
11,174,177,0.5
11,25,28,4
11,88,108,0.5
11,97,95,4
11,72,37,0.5
11,137,106,0.5
11,74,104,4
11,52,122,0.5
11,31,103,0.5
11,155,139,4
11,112,130,4
11,101,99,4
11,149,28,0.5
11,69,9,0.5
11,28,34,4
11,99,90,4
11,32,15,0.5
11,6,26,4
11,164,18,0.5
11,2,143,0.5
11,68,49,4
11,64,60,0.5
11,155,137,4
11,172,157,4
11,130,30,0.5
11,120,9,0.5
11,174,171,0.5
11,91,59,0.5
11,61,42,0.5
11,12,29,0.5
11,119,44,0.5
11,129,124,0.5
11,54,138,0.5
11,86,55,0.5
11,1,171,0.5
11,164,145,0.5
11,71,70,4
11,58,21,0.5
11,79,72,4
11,48,58,0.5
11,128,145,0.5
11,109,75,0.5
11,164,157,4
11,174,4,0.5
11,47,61,4
11,68,76,4
11,62,70,0.5
11,10,177,0.5
11,26,36,4
11,9,176,4
11,128,139,4
11,114,15,0.5
11,2,17,4
11,159,151,0.5
11,160,149,0.5
11,141,147,4
11,88,83,0.5
11,15,33,4
11,92,78,4
11,166,155,0.5
11,76,81,0.5
11,72,73,0.5
11,119,112,0.5
11,150,65,0.5
11,153,139,4
11,3,37,0.5
11,2,172,4
11,50,57,0.5
11,67,60,0.5
11,146,125,4
11,108,115,4
11,44,36,0.5
11,100,128,0.5
11,59,54,4
11,7,161,0.5
11,25,28,4
11,60,75,4
11,8,14,4
11,169,166,0.5
11,79,70,0.5
11,120,150,0.5
11,145,141,4
11,45,65,0.5
11,84,70,0.5
11,26,52,0.5
11,101,117,4
11,22,38,4
11,76,85,0.5
11,68,73,0.5
11,33,134,0.5
11,112,139,4
11,140,129,4
11,178,22,4
11,145,143,4
11,7,32,4
11,4,6,0.5
11,96,96,4
11,39,45,0.5
11,163,155,4
11,112,106,0.5
11,104,114,4
11,155,146,4
11,10,157,0.5
11,98,100,4
11,59,49,4
11,22,22,0.5
11,56,60,4
11,9,33,0.5
11,45,33,0.5
11,141,157,4
11,169,158,4
11,177,168,4
11,64,48,4
11,160,142,4
11,89,58,0.5
11,122,114,4
11,2,3,4
11,99,81,4
11,42,31,4
11,78,59,0.5
11,55,61,4
11,85,51,0.5
11,75,55,4
11,179,7,4
11,16,46,0.5
11,107,105,4
11,95,75,0.5
11,174,155,4
11,48,57,0.5
11,96,109,4
11,154,148,4
11,10,40,0.5
11,80,73,0.5
11,17,24,0.5
11,35,53,0.5
11,172,144,0.5
11,35,47,4
11,53,35,0.5
11,42,20,0.5
11,18,41,0.5
11,177,157,4
11,167,168,4
11,35,26,0.5
11,122,126,4
11,149,131,0.5
11,147,157,0.5
11,134,148,0.5
11,6,18,4
11,26,24,4
11,22,33,0.5
11,143,148,4
11,35,26,4
11,57,53,4
11,62,78,0.5
11,151,143,0.5
11,39,39,0.5
11,159,134,4
11,99,115,4
11,151,141,4
11,131,136,0.5
11,128,151,0.5
11,60,33,0.5
11,38,20,0.5
11,89,73,0.5
11,7,55,0.5
11,61,51,0.5
11,91,149,0.5
11,171,13,0.5
11,84,111,4
11,168,164,4
11,50,37,4
11,109,93,0.5
11,106,110,4
11,132,57,0.5
11,81,72,4
11,89,112,0.5
11,136,120,4
11,144,133,0.5
11,135,125,4
11,155,150,4
11,9,9,4
11,26,25,0.5
11,43,11,0.5
11,65,59,4
11,100,108,0.5
11,109,113,4
11,137,16,0.5
11,37,57,4
11,37,30,0.5
11,46,39,4
11,20,15,4
11,163,177,0.5
11,54,54,4
11,43,39,0.5
11,102,108,4
11,94,91,4
11,67,51,0.5
11,41,85,0.5
11,8,77,0.5
11,79,70,0.5
11,166,167,4
11,40,35,4
11,160,134,0.5
11,153,131,0.5
11,142,132,0.5
11,104,100,4
11,132,130,4
11,28,41,4
11,147,19,4
11,12,55,0.5
11,145,127,4
11,111,108,4
11,67,26,4
11,46,102,0.5
11,67,51,4
11,36,33,0.5
11,137,134,4
11,41,56,0.5
11,142,142,4
11,163,94,4
11,158,154,4
11,112,107,0.5
11,129,153,0.5
11,101,122,0.5
11,101,107,4
11,36,34,0.5
11,16,18,4
11,30,25,4
11,44,28,4
11,157,122,4
11,28,54,0.5
11,89,69,0.5
11,40,11,0.5
11,34,43,4
11,89,90,4
11,154,161,4
11,67,70,4
11,12,25,0.5
11,30,30,4
11,24,15,4
11,74,80,4
11,48,58,0.5
11,24,19,4
11,11,18,4
11,167,142,0.5
11,13,6,4
11,76,52,0.5
11,111,142,0.5
11,81,61,4
11,97,101,4
11,129,168,0.5
11,140,105,0.5
11,1,29,0.5
11,65,55,0.5
11,151,48,0.5
11,166,139,4
11,54,51,0.5
11,46,33,4
11,95,50,0.5
11,174,150,4
11,177,7,4
11,2,0,4
11,104,114,0.5
11,115,56,0.5
11,168,160,0.5
11,110,70,0.5
11,136,132,4
11,114,122,0.5
11,26,25,4
11,107,123,0.5
11,16,12,0.5
11,34,40,4
11,20,28,4
11,132,137,4
11,20,35,4
11,18,12,4
11,53,65,4
11,44,57,4
11,1,16,4
11,72,57,4
11,21,14,4
11,71,44,4
11,34,51,0.5
11,11,6,0.5
11,135,131,4
11,2,16,4
11,56,72,0.5
11,95,72,0.5
11,164,140,4
11,67,67,4
11,61,57,0.5
11,176,161,0.5
11,170,169,0.5
11,80,85,4
11,84,65,0.5
11,32,39,4
11,155,147,4
11,21,22,4
11,76,70,0.5
11,159,158,4
11,105,53,0.5
11,38,50,4
11,32,30,4
11,108,111,0.5
11,42,31,4
11,49,56,4
11,54,27,0.5
11,119,49,0.5
11,100,111,4
11,97,109,4
11,144,120,4
11,36,41,0.5
11,15,11,0.5
11,116,119,4
11,81,80,4
11,28,150,0.5
11,75,70,4
11,110,124,4
11,119,98,4
11,17,20,0.5
11,67,71,0.5
11,66,87,0.5
11,14,29,0.5
11,161,144,4
11,72,64,0.5
11,129,127,0.5
11,78,73,4
11,19,43,4
11,130,144,4
11,172,172,4
11,14,18,0.5
11,74,64,4
11,135,139,4
11,97,79,4
11,87,16,0.5
11,167,162,4
11,136,141,0.5
11,140,130,4
11,87,84,4
11,168,82,0.5
11,27,27,4
11,12,123,0.5
11,29,45,4
11,134,139,4
11,34,33,0.5
11,106,105,0.5
11,77,57,4
11,54,74,4
11,128,118,4
11,58,46,0.5
11,131,130,0.5
11,173,39,0.5
11,124,126,4
11,37,26,4
11,29,18,4
11,127,133,4
11,41,33,0.5
11,60,54,0.5
11,129,138,4
11,142,117,0.5
11,178,20,0.5
11,8,19,0.5
11,116,94,4
11,44,42,4
11,16,19,4
11,125,114,4
11,169,144,0.5
11,96,104,4
11,117,106,0.5
11,146,160,4
11,83,85,4
11,115,122,0.5
11,42,30,0.5
11,173,17,0.5
11,178,14,0.5
11,123,118,4
11,54,35,0.5
11,79,68,4
11,16,20,0.5
11,127,128,4
11,32,45,0.5
11,87,73,4
11,170,160,4
11,39,53,0.5
11,122,12,0.5
11,7,22,4
11,118,139,0.5
11,124,120,4
11,85,82,0.5
11,121,127,4
11,153,142,4
11,79,70,0.5
11,95,91,0.5
11,46,43,4
11,178,167,4
11,24,33,4
11,131,146,4
11,41,22,0.5
11,17,132,0.5
11,63,37,0.5
11,134,131,0.5
11,6,16,4
11,36,23,0.5
11,145,131,4
11,16,20,0.5
11,39,63,4
11,11,4,0.5
11,101,71,0.5
11,125,124,0.5
11,86,76,4
11,166,142,0.5
11,86,91,0.5
11,135,122,4
11,155,3,0.5
11,1,173,4
11,159,163,0.5
11,6,24,4
11,165,148,0.5
11,154,152,4
11,139,132,4
11,153,121,4
11,122,142,0.5
11,82,63,0.5
11,103,127,4
11,15,27,4
11,53,62,4
11,13,2,4
11,119,99,0.5
11,145,161,4
11,143,118,0.5
11,98,97,4
11,70,83,0.5
11,166,156,4
11,14,28,4
11,64,50,4
11,20,24,0.5
11,168,170,4
11,122,118,4
11,179,21,4
11,72,63,4
11,50,56,0.5
11,164,141,0.5
11,57,63,0.5
11,164,175,4
11,157,153,0.5
11,20,16,4
11,87,88,4
11,68,54,0.5
11,41,17,4
11,47,49,4
11,62,45,4
11,70,41,0.5
11,138,131,0.5
11,172,156,0.5
11,75,72,4
11,12,30,4
11,65,88,0.5
11,93,65,0.5
11,163,160,0.5
11,70,56,0.5
11,139,134,4
11,87,135,0.5
11,120,121,4
11,160,153,4
11,56,53,4
11,25,38,4
11,150,146,4
11,18,22,0.5
11,97,76,4
11,28,30,4
11,171,168,0.5
11,152,165,4
11,84,57,4
11,64,34,0.5
11,137,143,0.5
11,144,147,4
11,138,128,0.5
11,19,26,4
11,53,47,4
11,12,46,0.5
11,46,57,4
11,42,54,0.5
11,73,70,4
11,59,50,4
11,93,97,4
11,32,52,4
11,112,121,4
11,5,164,0.5
11,105,108,0.5
11,12,4,4
11,54,37,0.5
11,100,106,0.5
11,98,117,4
11,123,76,0.5
11,37,42,4
11,23,27,4
11,101,125,0.5
11,85,68,4
11,98,113,4
11,65,61,0.5
11,40,16,0.5
11,84,47,4
11,85,59,4
11,12,12,4
11,175,175,0.5
11,50,29,4
11,105,66,0.5
11,41,49,4
11,153,168,0.5
11,108,114,4
11,144,127,4
11,179,179,4
11,18,15,0.5
11,26,24,4
11,153,136,0.5
11,116,114,0.5
11,86,84,4
11,120,121,4
11,45,35,0.5
11,111,116,0.5
11,90,104,4
11,88,86,4
11,82,69,4
11,170,164,4
11,133,147,4
11,78,47,4
11,152,169,4
11,154,148,0.5
11,109,119,0.5
11,179,171,4
11,114,115,0.5
11,124,147,0.5
11,150,171,0.5
11,23,34,4
11,179,11,4
11,180,162,0.5
11,58,39,4
11,73,77,0.5
11,37,31,4
11,14,23,4
11,175,151,4
11,180,175,0.5
11,26,176,0.5
11,145,168,0.5
11,5,7,0.5
11,159,151,0.5
11,87,71,4
11,144,156,0.5
11,168,157,0.5
11,180,166,4
11,135,122,0.5
11,25,22,0.5
11,95,102,0.5
11,47,45,0.5
11,106,97,4
11,15,30,4
11,2,167,0.5
11,26,7,0.5
11,92,68,0.5
11,71,62,0.5
11,79,176,4
11,138,141,4
11,128,143,0.5
11,137,101,0.5
11,138,146,0.5
11,37,42,4
11,79,50,0.5
11,100,98,4
11,18,15,0.5
11,122,132,4
11,117,122,4
11,152,137,4
11,59,41,0.5
11,146,141,4
11,91,85,4
11,138,147,4
11,69,53,0.5
11,55,71,0.5
11,61,41,0.5
11,131,125,0.5
11,19,37,0.5
11,139,133,0.5
11,114,133,0.5
11,79,62,0.5
11,67,70,0.5
11,123,131,4
11,26,52,0.5
11,125,118,4
11,49,54,4
11,46,58,0.5
11,36,29,4
11,87,91,4
11,117,123,4
11,38,36,0.5
11,57,34,0.5
11,171,29,0.5
11,127,111,0.5
11,157,137,0.5
11,162,154,0.5
11,19,43,0.5
11,28,41,4
11,88,70,0.5
11,111,103,0.5
11,122,124,0.5
11,176,147,0.5
11,124,146,0.5
11,82,81,4
11,109,63,0.5
11,163,175,0.5
11,155,158,4
11,19,12,4
11,64,62,0.5
11,126,123,0.5
11,29,68,0.5
12,91,99,0.5
12,136,129,4
12,76,75,4
12,179,177,0.5
12,70,71,4
12,164,171,4
12,131,134,4
12,105,76,0.5
12,89,85,4
12,9,15,0.5
12,143,141,4
12,17,3,0.5
12,64,60,4
12,87,85,0.5
12,56,89,4
12,102,93,0.5
12,177,0.25,4
12,169,179,0.5
12,2,178,0.5
12,54,58,0.5
12,31,44,4
12,70,86,0.5
12,153,3,0.5
12,166,175,0.5
12,129,109,0.5
12,23,29,4
12,142,161,0.5
12,13,172.75,0.5
12,89,81,0.5
12,49,90,4
12,26,178,0.5
12,180,6,4
12,148,7,4
12,45,18,4
12,6,7,4
12,71,101,0.5
12,16,92,0.5
12,11,7,4
12,14,4,0.5
12,7,1,0.5
12,168,1,0.5
12,136,161,4
12,3,171,0.5
12,172,99,4
12,136,152,4
12,88,89.75,4
12,50,65,4
12,74,62,4
12,46,16,0.5
12,9,17,4
12,118,121,4
12,5,179,0.5
12,168,3,0.5
12,98,95.75,0.5
12,162,166,4
12,78,102,4
12,84,82,0.5
12,86,98,0.5
12,162,0,0.5
12,32,176,0.5
12,98,115,4
12,92,89,4
12,135,107,0.5
12,143,166,0.5
12,88,86,4
12,174,177,4
12,96,93.5,0.5
12,160,163,4
12,112,106,4
12,70,67,4
12,4,6,4
12,130,124,0.5
12,147,129,4
12,126,140,4
12,106,90,0.5
12,14,26,0.5
12,125,120,4
12,126,80,0.5
12,32,120,4
12,164,128,4
12,60,54,4
12,149,149,4
12,80,91,0.5
12,39,33,0.5
12,174,55,0.5
12,77,65,0.5
12,145,176,0.5
12,151,146,4
12,120,76,0.5
12,117,119,4
12,103,100,4
12,144,130.5,4
12,110,140.25,0.5
12,161,3,0.5
12,132,58,0.5
12,110,96.5,4
12,137,80,0.5
12,60,77,0.5
12,31,37,4
12,105,93,0.5
12,107,115.25,4
12,82,40,0.5
12,174,164,0.5
12,69,63,4
12,80,77,0.5
12,72,77,0.5
12,172,177,4
12,23,26,0.5
12,138,146,4
12,133,153,4
12,137,75,4
12,175,164.5,0.5
12,106,89,0.5
12,168,36,0.5
12,92,103,0.5
12,72,86,0.5
12,50,46,0.5
12,122,75,0.5
12,99,89,0.5
12,92,74,0.5
12,72,81.25,4
12,40,54,4
12,64,102,0.5
12,37,40,0.5
12,6,0,4
12,169,178,0.5
12,71,92,0.5
12,150,156,0.5
12,6,161,0.5
12,8,179,4
12,17,14,0.5
12,107,113,4
12,114,84,0.5
12,125,129,4
12,10,0,0.5
12,173,179,0.5
12,34,37,0.5
12,15,7,0.5
12,105,99,0.5
12,176,8,4
12,3,4,4
12,168,0,0.5
12,51,102,0.5
12,99,94,4
12,146,164,4
12,22,9,0.5
12,158,165,4
12,7,0,0.5
12,11,27,4
12,6,5,0.5
12,151,149,4
12,173,172.75,0.5
12,153,169.25,0.5
12,178,1,4
12,57,47,4
12,116,112.5,0.5
12,10,7,4
12,78,96.5,0.5
12,93,88.25,0.5
12,97,93.25,0.5
12,154,171,0.5
12,139,157.5,4
12,141,145,4
12,99,115,0.5
12,85,75,4
12,16,28,4
12,77,83,4
12,61,51,4
12,121,113,0.5
12,170,176,0.5
12,15,0,0.5
12,82,102,0.5
12,85,92,0.5
12,40,43,4
12,150,168.75,0.5
12,89,91,4
12,63,63,4
12,74,86,4
12,33,27.75,0.5
12,130,144.5,0.5
12,157,169.75,0.5
12,125,153.25,4
12,160,172,4
12,130,152.25,4
12,3,172,4
12,63,68,4
12,36,143,0.5
12,172,176.25,4
12,38,177.5,0.5
12,39,136,4
12,46,48.5,4
12,52,49,4
12,144,123,0.5
12,149,99,0.5
12,9,0.5,0.5
12,82,80.5,0.5
12,153,167,0.5
12,102,109,4
12,45,38,4
12,169,171.75,0.5
12,5,11.75,0.5
12,63,96,4
12,135,117.5,4
12,70,74,4
12,65,69.5,4
12,129,123.5,4
12,84,85,4
12,14,2,0.5
12,25,21.5,4
12,55,92,0.5
12,125,147,4
12,111,92,4
12,100,104.25,4
12,105,107,0.5
12,137,107.75,0.5
12,48,84.25,0.5
12,16,11,0.5
12,70,69.25,4
12,98,55,0.5
12,156,156,0.5
12,71,77,0.5
12,45,166,0.5
12,174,165.75,0.5
12,139,147,4
12,133,157.75,0.5
12,172,174,0.5
12,177,169,0.5
12,177,170.25,4
12,19,174.25,0.5
12,123,101.5,0.5
12,111,111.5,4
12,30,6,0.5
12,158,171.25,0.5
12,136,165,4
12,1,178,0.5
12,82,74,0.5
12,78,81,0.5
12,42,67,4
12,25,42.75,4
12,172,70,0.5
12,16,69,0.5
12,66,80,0.5
12,119,108,4
12,126,128.5,4
12,15,15,0.5
12,123,138,4
12,19,17,4
12,64,79,0.5
12,7,6.25,4
12,123,119,4
12,4,9,0.5
12,175,76,0.5
12,26,6,0.5
12,96,75,0.5
12,94,101,4
12,158,165,4
12,163,167,0.5
12,36,14,0.5
12,118,145,0.5
12,42,28,0.5
12,47,45,4
12,16,35,4
12,169,148,4
12,89,103,4
12,10,10,4
12,101,106,0.5
12,74,75.5,4
12,66,55,0.5
12,86,81,0.5
12,85,74,4
12,136,103,0.5
12,100,114,4
12,84,107,0.5
12,178,176,4
12,144,144,4
12,166,163,4
12,5,173,0.5
12,167,179,0.5
12,1,167,4
12,35,6,4
12,1,170,4
12,126,149,4
12,92,107,0.5
12,37,50,0.5
12,160,160,4
12,99,7,4
12,82,65,4
12,48,69,4
12,103,82,0.5
12,144,142,4
12,108,103,4
12,100,106,0.5
12,97,104,4
12,61,73,0.5
12,28,11,4
12,131,148,4
12,156,155,0.5
12,123,138.5,0.5
12,45,39.25,0.5
12,175,168,0.5
12,142,160,4
12,41,27,4
12,173,179,4
12,117,125,0.5
12,33,36,4
12,170,175,4
12,120,159,0.5
12,164,140,0.5
12,114,110,4
12,156,165,0.5
12,149,158,4
12,144,153,0.5
12,142,150,4
12,146,130,0.5
12,99,76,4
12,21,41,4
12,2,1,0.5
12,86,90,0.5
12,4,0,0.5
12,102,104,4
12,28,32,4
12,37,39,0.5
12,103,109,4
12,99,109,0.5
12,19,16,0.5
12,88,90,4
12,30,165,0.5
12,138,157,4
12,75,97,0.5
12,131,121,0.5
12,94,113,4
12,173,178,0.5
12,37,13,0.5
12,24,0,0.5
12,123,153,0.5
12,91,50,0.5
12,27,19,4
12,31,31,4
12,52,48,4
12,38,30,0.5
12,37,39.25,4
12,127,167.75,0.5
12,41,20,4
12,30,20.75,4
12,124,154,0.5
12,7,13.75,4
12,180,177.75,0.5
12,76,87,0.5
12,138,147,4
12,116,116,4
12,16,25,4
12,165,167.25,4
12,87,93,4
12,131,131,4
12,87,89,4
12,49,65,0.5
12,25,25.5,0.5
12,53,20,0.5
12,106,106.25,4
12,94,98,4
12,167,170,4
12,10,177,4
12,53,12,0.5
12,32,39,4
12,43,28,0.5
12,14,16,4
12,173,4,0.5
12,138,158,4
12,42,32,0.5
12,116,155,0.5
12,130,147,4
12,23,35,0.5
12,167,161,4
12,138,96,0.5
12,15,4,0.5
12,150,161,4
12,61,34,0.5
12,117,141,4
12,56,59,4
12,58,47,4
12,151,164,0.5
12,19,19,4
12,3,173.75,4
12,39,15,0.5
12,116,115,4
12,175,8,0.5
12,21,19.75,4
12,158,162,4
12,116,82.25,0.5
12,136,128,4
12,134,111.75,0.5
12,99,103.75,4
12,7,0,0.5
12,103,111,4
12,163,164.5,4
12,179,1,4
12,131,148.5,4
12,108,128,0.5
12,143,146,4
12,90,80,0.5
12,154,157,4
12,15,15,0.5
12,7,17,0.5
12,160,174,0.5
12,119,126,4
12,160,33,0.5
12,39,50,0.5
12,62,65,4
12,89,80.5,4
12,136,139,0.5
12,62,66,0.5
12,129,138,4
12,153,173,4
12,147,159,0.5
12,123,119,0.5
12,4,172,0.5
12,88,99,4
12,38,45,4
12,53,35,4
12,112,103,0.5
12,111,111,4
12,50,45,0.5
12,58,46,4
12,116,125.25,0.5
12,159,171.25,0.5
12,36,21,4
12,168,156,0.5
12,48,37,0.5
12,146,155.25,4
12,129,154,4
12,100,97,4
12,65,73,0.5
12,65,58.75,4
12,22,18,4
12,156,74,0.5
12,167,165.25,4
12,177,176,0.5
12,30,23,4
12,72,82.5,0.5
12,151,172,0.5
12,109,104.25,0.5
12,119,122,4
12,124,121.75,4
12,100,107,0.5
12,150,144.5,4
12,137,119.75,4
12,166,163,4
12,5,12.25,4
12,113,104,0.5
12,115,108,0.5
12,80,97,0.5
12,48,68,0.5
12,99,86.75,4
12,18,33.5,4
12,90,87,4
12,142,156,0.5
12,103,96,4
12,32,40,0.5
12,154,173,0.5
12,81,75,4
12,81,82.25,0.5
12,46,78,0.5
12,174,40,0.5
12,61,75,0.5
12,68,77,0.5
12,33,43,0.5
12,43,50.75,0.5
12,148,156,0.5
12,44,17,0.5
12,175,174.5,4
12,105,99.5,4
12,36,70,4
12,156,148,4
12,139,167.5,0.5
12,74,67.75,4
12,77,82,0.5
12,7,3,0.5
12,102,91,0.5
12,104,90,4
12,78,76.5,4
12,180,0,4
12,4,12,0.5
12,150,174,0.5
12,110,122.25,4
12,32,21,0.5
12,113,131,4
12,114,128.25,0.5
12,128,10,0.5
12,3,9,0.5
12,93,87.5,4
12,100,98.5,0.5
12,170,167.5,4
12,166,170,0.5
12,45,97,0.5
12,124,134.25,0.5
12,152,7,0.5
12,131,121,0.5
12,152,169,0.5
12,131,143,4
12,87,82,4
12,162,178,0.5
12,89,93,0.5
12,131,140,4
12,67,65,4
12,57,71,4
12,66,61,0.5
12,102,115,4
12,153,137,0.5
12,72,63,4
12,117,125.5,4
12,78,78,4
12,87,86,0.5
12,134,129,4
12,81,78.75,4
12,10,12.75,4
12,176,177,0.5
12,25,2,0.5
12,40,10,4
12,133,163,0.5
12,151,169,4
12,32,11,0.5
12,44,31.75,4
12,93,96.75,4
12,135,113,0.5
12,146,168,4
12,56,72,4
12,123,108,4
12,66,76,4
12,22,33,4
12,63,65,0.5
12,116,102.5,0.5
12,82,86,0.5
12,76,79,0.5
12,29,8.25,0.5
12,147,162,4
12,108,115.25,4
12,114,127,4
12,137,133.5,0.5
12,138,138,4
12,105,108,4
12,175,177,4
12,163,173,4
12,88,89,4
12,164,177,4
12,53,72,0.5
12,1,175,4
12,176,179,4
12,57,35.75,4
12,163,154,4
12,21,20.75,4
12,48,38,4
12,9,25,0.5
12,107,121.5,4
12,31,42.25,4
12,75,101,4
12,42,62,4
12,142,168,0.5
12,161,162,4
12,117,113.75,0.5
12,179,4.5,4
12,99,106,4
12,39,88,0.5
12,34,82.5,0.5
12,85,99,0.5
12,81,92,0.5
12,165,159,4
12,55,82.5,0.5
12,126,75.75,0.5
12,96,92,4
12,94,90.5,4
12,21,15.75,4
12,96,99,4
12,65,86.5,0.5
12,95,86,0.5
12,107,100.75,4
12,103,110,4
12,2,0,4
12,45,21,4
12,66,37,4
12,83,64.5,4
12,130,134,4
12,108,105,4
12,24,176,0.5
12,125,82,0.5
12,84,86.25,4
12,166,173,0.5
12,79,84.25,0.5
12,2,175,0.5
12,125,87,0.5
12,178,177,0.5
12,136,172,0.5
12,165,170,0.5
12,120,82.5,0.5
12,3,43,4
12,48,50,4
12,65,56,0.5
12,88,88.25,4
12,152,163.25,4
12,153,171,0.5
12,37,42,4
12,18,14.5,0.5
12,92,101,0.5
12,34,49.5,4
12,169,177,0.5
12,5,172.75,4
12,64,43.75,4
12,160,162.5,0.5
12,118,109,0.5
12,90,91,0.5
12,32,16.75,0.5
12,167,175,0.5
12,134,146,4
12,8,167,0.5
12,59,54.5,0.5
12,119,140,0.5
12,58,39,4
12,105,132,4
12,167,175,0.5
12,10,5.25,0.5
12,175,179,0.5
12,48,58,0.5
12,141,170,4
12,137,154,4
12,98,108,0.5
12,27,24,4
12,50,100.75,0.5
12,171,0,4
12,136,156.5,4
12,133,98,0.5
12,124,137.75,0.5
12,30,29,4
12,37,19,0.5
12,30,23,4
12,149,162,0.5
12,73,91,0.5
12,179,0,0.5
12,133,163,4
12,76,68,4
12,176,177,0.5
12,25,2,0.5
12,19,4,0.5
12,145,155,0.5
12,156,166,4
12,100,103,4
12,95,96,4
12,164,97,0.5
12,131,135,4
12,69,63,4
12,14,5,4
12,160,157,4
12,104,178,0.5
12,106,108,4
12,24,15,0.5
12,172,175.25,4
12,106,114,4
12,52,80,0.5
12,81,87,4
12,110,107,0.5
12,169,173,4
12,19,4,0.5
12,82,98,0.5
12,121,141.5,4
12,175,1,0.5
12,76,93,0.5
12,75,90,4
12,39,51,4
12,172,178,4
12,167,9.25,0.5
12,36,24.25,0.5
12,66,33,0.5
12,18,18,4
12,43,33,4
12,132,146,4
12,87,90,4
12,109,99.25,0.5
12,49,47,4
12,135,149,4
12,135,150.5,0.5
12,141,154,0.5
12,166,176,0.5
12,149,143,4
12,160,169,0.5
12,41,33.75,4
12,19,25,4
12,28,22,0.5
12,58,27,0.5
12,55,34,0.5
12,117,162.5,4
12,131,136,4
12,87,92,4
12,169,0,0.5
12,47,25,0.5
12,52,38.75,4
12,36,6,0.5
12,89,106,0.5
12,102,109,0.5
12,126,118.25,0.5
12,173,2,4
12,61,40,4
12,50,35,0.5
12,146,166,4
12,40,20.75,4
12,73,81.5,4
12,37,89,0.5
12,56,69,0.5
12,100,81.5,4
12,140,143.25,4
12,169,157.25,0.5
12,54,70.5,0.5
12,62,64,4
12,104,116.75,4
12,133,117.5,4
12,94,117,0.5
12,147,146,4
12,71,96.25,0.5
12,113,115,0.5
12,119,118,4
12,77,83,0.5
12,68,85,4
12,110,83,0.5
12,62,71,4
12,24,16,0.5
12,128,141,4
12,118,147,4
12,165,179,0.5
12,113,132,4
12,38,30.25,0.5
12,143,152,4
12,167,165.25,4
12,29,28,0.5
12,46,32,0.5
12,179,173.5,4
12,75,65,4
12,16,177,0.5
12,71,103,0.5
12,9,2,0.5
12,155,165,0.5
12,143,18,0.5
12,23,22,0.5
12,149,164.75,4
12,53,31,4
12,54,29,4
12,65,47,4
12,149,153,0.5
12,68,66,4
12,129,135,4
12,179,0.25,4
12,159,175,0.5
12,173,1,0.5
12,44,89,0.5
12,32,173,0.5
12,167,174.5,4
12,71,48,0.5
12,81,79,4
12,178,18,0.5
12,2,11,0.5
12,84,8,0.5
12,166,178.25,0.5
12,53,32.25,4
12,123,103,0.5
12,1,13.5,4
12,80,76,4
12,35,34,0.5
12,109,92,0.5
12,28,10,0.5
12,61,63,4
12,131,136.25,0.5
12,79,95.25,0.5
12,158,159,4
12,134,157.5,0.5
12,52,36,4
12,136,151,4
12,116,155,4
12,180,174.5,4
12,63,72.75,0.5
12,6,177,0.5
12,173,173.75,4
12,131,138.25,0.5
12,110,126,4
12,104,109,4
12,160,176,4
12,158,165,4
12,130,149,4
12,131,133,4
12,176,169,4
12,167,171,4
12,103,86.25,4
12,55,26.5,0.5
12,18,30,4
12,73,71,4
12,81,77,4
12,134,146,4
12,5,169.75,0.5
12,168,0,0.5
12,44,88,0.5
12,72,79,4
12,46,65.75,4
12,38,54,0.5
12,31,11.25,0.5
12,9,11,4
12,171,172.25,0.5
12,101,94.75,0.5
12,154,159,4
12,177,3,0.5
12,90,84,0.5
12,148,159,0.5
12,20,18,0.5
12,124,63,4
12,5,14,4
12,104,123,0.5
12,57,74.5,0.5
12,143,120,4
12,140,156,4
12,132,145,4
12,171,165,0.5
12,24,23,4
12,94,75,4
12,18,8,0.5
12,63,56,4
12,117,137,4
12,123,124,0.5
13,178,149,0.5
13,37,110,0.5
13,78,140,0.5
13,19,170,4
13,22,95,4
13,47,32,0.5
13,29,129,4
13,162,46,0.5
13,164,49,0.5
13,95,4,4
13,140,172,0.5
13,141,20,4
13,38,78,0.5
13,161,137,4
13,17,111,4
13,125,54,0.5
13,8,104,4
13,5,43,4
13,173,24,4
13,29,45,4
13,112,27,0.5
13,17,41,4
13,142,47,4
13,23,118,4
13,53,152,4
13,91,174,4
13,177,175,0.5
13,95,174,4
13,105,2,0.5
13,155,14,0.5
13,24,107,0.5
13,145,64,0.5
13,121,89,4
13,92,2,0.5
13,102,171,4
13,10,123,0.5
13,28,66,0.5
13,79,98,0.5
13,6,144,0.5
13,170,57,0.5
13,176,96,4
13,70,167,0.5
13,77,174,4
13,4,60,0.5
13,149,52,4
13,131,44,4
13,160,29,0.5
13,173,84,4
13,45,85,0.5
13,40,80,4
13,50,3,0.5
13,35,164,4
13,24,105,4
13,15,116,0.5
13,9,128,0.5
13,77,2,4
13,23,89,0.5
13,13,90,0.5
13,173,67,4
13,7,77,0.5
13,157,61,0.5
13,172,52,4
13,47,6,0.5
13,113,57,4
13,45,152,4
13,180,114,4
13,122,7,4
13,75,41,0.5
13,9,78,4
13,122,23,0.5
13,23,41,4
13,31,65,4
13,111,0,4
13,137,42,0.5
13,3,105,0.5
13,105,12,4
13,174,79,0.5
13,25,135,0.5
13,121,69,0.5
13,57,8,0.5
13,140,45,0.5
13,178,81,0.5
13,69,164,4
13,19,56,4
13,162,69,4
13,49,147,4
13,126,42,4
13,113,178,0.5
13,94,43,4
13,143,28,4
13,131,41,4
13,38,148,0.5
13,95,43,0.5
13,17,87,0.5
13,20,84,4
13,75,16,4
13,26,98,4
13,78,178,4
13,179,69,4
13,28,126,4
13,30,59,0.5
13,107,47,0.5
13,179,75,0.5
13,64,51,4
13,143,158,0.5
13,173,50,0.5
13,117,24,4
13,127,25,4
13,129,33,4
13,6,78,4
13,96,52,0.5
13,116,23,4
13,77,35,4
13,50,13,4
13,171,63,4
13,157,46,0.5
13,4,18,0.5
13,73,64,0.5
13,110,44,4
13,54,168,0.5
13,82,83,0.5
13,179,91,4
13,31,97,4
13,88,1,4
13,28,145,4
13,29,95,4
13,175,91,0.5
13,172,102,4
13,15,90,0.5
13,78,175,0.5
13,104,1,0.5
13,12,85,0.5
13,25,102,0.5
13,153,97,4
13,22,101,4
13,65,167,0.5
13,76,61,4
13,120,13,0.5
13,50,30,0.5
13,15,50,0.5
13,38,56,0.5
13,11,119,4
13,167,82,4
13,149,48,4
13,120,49,4
13,81,148,0.5
13,28,149,4
13,137,34,0.5
13,62,140,0.5
13,167,162,0.5
13,83,55,4
13,97,2,4
13,129,28,0.5
13,137,17,0.5
13,158,51,4
13,180,42,4
13,137,124,0.5
13,152,35,4
13,42,136,4
13,129,56,4
13,134,0,4
13,64,162,0.5
13,11,3,4
13,15,96,4
13,170,96,0.5
13,129,39,4
13,17,89,4
13,57,169,0.5
13,8,109,0.5
13,73,153,4
13,106,148,4
13,66,140,4
13,10,102,0.5
13,117,36,0.5
13,66,154,4
13,29,91,0.5
13,53,134,4
13,137,36,4
13,125,22,0.5
13,169,147,0.5
13,173,44,4
13,108,99,0.5
13,2,107,4
13,13,157,4
13,1,82,0.5
13,5,47,0.5
13,27,130,4
13,39,131,4
13,159,125,0.5
13,144,40,0.5
13,38,145,4
13,149,52,4
13,135,38,4
13,146,44,0.5
13,33,3,0.5
13,31,37,4
13,103,23,0.5
13,121,25,4
13,170,74,4
13,69,1,4
13,54,132,4
13,159,51,0.5
13,10,92,4
13,9,96,0.5
13,86,172,4
13,18,51,4
13,101,38,4
13,41,126,4
13,18,127,0.5
13,80,155,4
13,35,121,4
13,29,142,0.5
13,73,9,4
13,164,75,4
13,114,54,0.5
13,75,40,4
13,94,44,0.5
13,8,55,4
13,83,148,0.5
13,10,9,0.5
13,154,101,4
13,119,42,4
13,24,111,0.5
13,180,90,4
13,68,179.75,4
13,159,22,0.5
13,10,92,4
13,139,49,4
13,53,138,4
13,12,131,0.5
13,3,132,0.5
13,138,54,4
13,24,137,0.5
13,11,144,0.5
13,138,54,0.5
13,82,156,0.5
13,46,146,4
13,173,56,0.5
13,85,13,0.5
13,11,94,0.5
13,154,48,4
13,91,130,0.5
13,119,30,4
13,150,31,0.5
13,39,125,4
13,90,132,4
13,20,89.25,0.5
13,129,58.5,4
13,127,39,4
13,14,99,0.5
13,89,3,4
13,97,9,0.5
13,149,66,0.5
13,180,51,0.5
13,95,97,0.5
13,65,177,0.5
13,76,146,4
13,78,126,4
13,133,53,0.5
13,83,150,4
13,27,133,0.5
13,164,41,4
13,122,147.75,0.5
13,177,90,4
13,69,55,0.5
13,78,137,4
13,155,67,4
13,49,137,4
13,22,138,0.5
13,47,56,0.5
13,164,101,4
13,100,0,4
13,110,149,0.5
13,40,162,4
13,54,146,4
13,40,141,0.5
13,48,160,0.5
13,49,145,4
13,166,43,0.5
13,158,98,0.5
13,151,58,0.5
13,133,38,4
13,99,6,0.5
13,143,54,0.5
13,23,45,0.5
13,29,54,4
13,46,29,4
13,117,42,0.5
13,14,141,4
13,96,5,0.5
13,38,161,4
13,87,2,4
13,38,149,4
13,64,146,4
13,172,38,0.5
13,132,34,0.5
13,105,37,4
13,69,147,0.5
13,172,136,0.5
13,134,134,0.5
13,145,51,0.5
13,108,167,0.5
13,94,36,0.5
13,150,41,4
13,86,33,4
13,171,51,0.5
13,1,137,0.5
13,179,47,0.5
13,130,49,0.5
13,155,43,4
13,166,92,4
13,103,29,4
13,63,8,0.5
13,159,71,4
13,32,150,0.5
13,79,120,4
13,158,36,0.5
13,15,99,4
13,94,146,0.5
13,76,38,4
13,26,104,4
13,142,53,4
13,34,136,0.5
13,63,124,4
13,27,55,0.5
13,77,156,0.5
13,173,70,0.5
13,179,76,4
13,175,60,4
13,129,46,4
13,179,75,4
13,63,2,0.5
13,57,134,4
13,59,152,4
13,6,42,0.5
13,4,65,0.5
13,76,29,0.5
13,86,48,4
13,138,31,0.5
13,41,122,0.5
13,21,126,4
13,161,125,0.5
13,52,123,0.5
13,31,56,4
13,24,98,0.5
13,50,131,4
13,75,132,0.5
13,166,80,0.5
13,36,128,0.5
13,61,157,4
13,49,136,4
13,47,148,0.5
13,19,112,0.5
13,52,138,4
13,147,145,4
13,96,42,0.5
13,119,145,0.5
13,92,17,4
13,93,8,0.5
13,43,2,4
13,31,44,4
13,21,88,4
13,122,21,4
13,125,147,4
13,60,42,0.5
13,33,38,4
13,179,97,0.5
13,109,120,4
13,41,94,0.5
13,142,88,0.5
13,158,28,4
13,110,24,4
13,163,129,4
13,114,44,4
13,108,40,4
13,30,121,0.5
13,134,153,4
13,171,102,0.5
13,40,171,0.5
13,139,55,4
13,67,156,4
13,8,75,0.5
13,46,62,0.5
13,120,44,0.5
13,137,60,4
13,155,59,4
13,165,83,4
13,139,112,4
13,120,33,0.5
13,123,124,0.5
13,44,60,0.5
13,101,46,4
13,131,54,0.5
13,89,5,4
13,158,78,4
13,93,126,0.5
13,27,55,0.5
13,115,44,0.5
13,41,91,4
13,122,172,0.5
13,53,1,0.5
13,140,45,4
13,82,153,0.5
13,122,47,4
13,108,59,0.5
13,128,51,0.5
13,130,58,4
13,103,171,0.5
13,129,153,0.5
13,40,137,4
13,37,154,4
13,158,52,0.5
13,74,172,4
13,24,114,4
13,85,20,0.5
13,69,179,0.5
13,24,14,0.5
13,92,9,4
13,73,1,0.5
13,174,134,4
13,7,103,4
13,60,142,0.5
13,42,2,4
13,170,102,4
13,109,19,4
13,59,176,4
13,171,41,4
13,30,84,4
13,44,144,4
13,15,160,4
13,4,102,4
13,69,4,0.5
13,29,142,4
13,74,6,0.5
13,74,128,0.5
13,1,20,0.5
13,13,66,4
13,117,60,4
13,35,110,0.5
13,2,92.5,4
13,50,150,4
13,167,67,0.5
13,174,91,4
13,105,33,4
13,129,24,0.5
13,153,132,0.5
13,171,91,4
13,145,69,4
13,154,47,0.5
13,149,52,4
13,82,41,0.5
13,143,34,0.5
13,16,135,0.5
13,26,162,0.5
13,17,116,4
13,83,2,4
13,146,69,4
13,94,25,4
13,53,162,0.5
13,5,89.75,4
13,31,121,0.5
13,63,133,0.5
13,86,55,0.5
13,32,95,0.5
13,93,44,4
13,54,130,0.5
13,112,6,0.5
13,72,153,0.5
13,96,50,4
13,145,153,4
13,166,145,4
13,64,174,0.5
13,33,130,0.5
13,99,23,0.5
13,59,46,4
13,62,135,4
13,116,44,0.5
13,40,138,0.5
13,136,64,4
13,61,151,0.5
13,86,14,0.5
13,25,55,0.5
13,144,41,0.5
13,155,64,0.5
13,92,158,0.5
13,46,32,0.5
13,168,39,0.5
13,100,50,4
13,32,5,0.5
13,76,161,4
13,146,44,4
13,10,136,4
13,127,127,0.5
13,177,132,0.5
13,52,159,0.5
13,13,116,4
13,125,50,4
13,179,105,4
13,86,126,0.5
13,161,76,4
13,81,22,4
13,28,81,4
13,46,136,0.5
13,70,140,4
13,104,44,4
13,52,149,0.5
13,90,27,0.5
13,79,159,0.5
13,32,156,0.5
13,155,53,4
13,62,177,0.5
13,80,139,0.5
13,126,33,4
13,137,48,4
13,141,2,4
13,55,152,0.5
13,123,28,0.5
13,80,154,0.5
13,128,99,0.5
13,4,89,4
13,3,142,0.5
13,67,174,4
13,84,166,0.5
13,49,142,0.5
13,61,154,4
13,71,11,0.5
13,130,39,0.5
13,104,34,0.5
13,16,130,0.5
13,161,86,4
13,110,135,0.5
13,36,152,4
13,137,37,0.5
13,99,8,4
13,27,98,4
13,125,54,4
13,165,87,4
13,138,46,4
13,172,74,4
13,50,42,0.5
13,70,175,0.5
13,155,45,4
13,141,54,0.5
13,97,60,4
13,15,101,4
13,3,171,0.5
13,161,138,0.5
13,22,140,0.5
13,51,133,4
13,37,154,4
13,131,58,0.5
13,85,42,0.5
13,18,146,0.5
13,129,48,4
13,37,142,4
13,63,124,4
13,122,176,4
13,16,101,0.5
13,142,47,4
13,135,51,0.5
13,42,86,0.5
13,33,132,4
13,98,0,4
13,97,171,4
13,138,51,4
13,85,53,0.5
13,142,45,4
13,175,73,4
13,42,138,4
13,179,129,4
13,91,160,0.5
13,180,38,0.5
13,155,52,4
13,72,148,4
13,137,34,4
13,6,13,4
13,24,153,0.5
13,36,148,4
13,17,145,4
13,125,18,0.5
13,58,150,4
13,140,44,4
13,179,92,4
13,17,142,0.5
13,99,45,4
13,152,137,4
13,2,106,0.5
13,30,86,4
13,172,130,0.5
13,138,32,4
13,146,50,4
13,129,65,0.5
13,159,58,0.5
13,13,157,0.5
13,60,179,0.5
13,48,126,0.5
13,2,147,0.5
13,95,52,0.5
13,157,69,0.5
13,29,101,4
13,133,46,0.5
13,46,128,0.5
13,19,129,4
13,100,42,4
13,7,18,4
13,92,12,4
13,34,131,4
13,163,61,4
13,141,50,0.5
13,149,128,0.5
13,97,147,0.5
13,2,95,4
13,60,115,0.5
13,116,17,0.5
13,118,72,0.5
13,57,136,0.5
13,54,145,0.5
13,60,151,0.5
13,83,19,0.5
13,113,33,0.5
13,53,147,4
13,82,51,0.5
13,58,119,0.5
13,26,158,4
13,4,110,0.5
13,111,55,0.5
13,110,5,0.5
13,127,44,0.5
13,116,132,0.5
13,67,46,0.5
13,180,128,0.5
13,77,9,0.5
13,72,51,0.5
13,98,22,4
13,174,11,4
13,27,135,4
13,88,146,4
13,62,70,0.5
13,99,36,4
13,51,33,0.5
13,166,53,0.5
13,41,121,4
13,146,46,0.5
13,44,142,4
13,125,35,4
13,100,135,4
13,35,136,0.5
13,35,53,4
13,120,49,0.5
13,164,114,0.5
13,97,162,4
13,145,48,4
13,169,93,4
13,69,175,0.5
13,5,90.75,4
13,17,105.25,0.5
13,121,49,4
13,7,141,4
13,139,61,4
13,98,25,4
13,98,36,0.5
13,162,61,0.5
13,91,1,4
13,105,42,0.5
13,107,35,4
13,132,39,4
13,35,158,4
13,148,40,4
13,180,146,0.5
13,14,48,0.5
13,34,171,0.5
13,49,21,4
13,159,141,0.5
13,178,88,4
13,17,38,0.5
13,76,165,4
13,149,68,4
13,48,135,0.5
13,104,131,0.5
13,136,27,0.5
13,121,26,0.5
13,128,40,0.5
13,58,162,4
13,144,29,4
13,10,100,4
13,14,53,0.5
13,143,176,4
13,24,91,0.5
13,59,130,4
13,18,86,0.5
13,29,117,0.5
13,93,110,4
13,175,63,0.5
13,126,72,4
13,10,53,4
13,100,177,0.5
13,64,72,4
13,112,59,4
13,129,89,0.5
13,85,55,4
13,7,154,0.5
13,4,72,0.5
13,159,81,0.5
13,32,65,0.5
13,109,42,4
13,36,116,0.5
13,161,12,0.5
13,64,148,4
13,108,48,0.5
13,177,152,0.5
13,84,157,0.5
13,20,43,0.5
13,54,157,4
13,4,129,4
13,165,129,4
13,141,45,0.5
13,146,44,0.5
13,79,39,0.5
13,47,63,0.5
13,133,51,0.5
13,118,42,4
13,172,66,0.5
13,90,145,0.5
13,88,156,4
13,125,39,0.5
13,20,54,0.5
13,172,150,0.5
13,46,47,4
13,16,103,4
13,4,103,4
13,67,157,0.5
13,9,47,4
13,159,60,4
13,154,54,4
13,7,124,4
13,27,108,0.5
13,173,35,4
13,2,100,4
13,79,151,4
13,127,28,0.5
13,52,124,4
13,4,57,0.5
13,109,26,0.5
13,26,60,0.5
13,32,148,0.5
13,33,142,0.5
13,120,57,4
13,13,103,0.5
13,165,75,4
13,58,168,0.5
13,106,60,0.5
13,157,56,4
13,68,156,0.5
13,14,107,4
13,36,141,4
13,70,143,4
13,75,142,0.5
13,123,140,4
13,32,59,0.5
13,123,33,4
13,60,146,0.5
13,178,54,0.5
13,149,44,4
13,121,132,0.5
13,93,45,0.5
13,44,137,0.5
13,36,114,4
13,127,50,0.5
13,113,1.25,0.5
13,74,173,4
13,34,153,0.5
13,29,119,4
13,143,152,4
13,60,151,4
13,175,71,4
13,174,90,0.5
13,50,122,4
13,22,145,4
13,126,135,0.5
13,107,43,4
13,164,65,4
13,26,95,4
13,47,122,0.5
13,17,91,0.5
13,58,149,0.5
13,75,143,0.5
13,155,39,0.5
13,154,38,0.5
13,146,42,4
13,106,25,0.5
13,118,40,4
13,52,3,4
13,143,41,0.5
13,163,18,0.5
13,15,45,0.5
13,159,49,4
13,3,108,4
13,133,82,4
13,100,127,4
13,41,8,4
13,116,48,0.5
13,69,171,0.5
13,155,56,0.5
13,94,150,4
13,93,162,0.5
13,88,85,4
13,41,63,4
13,71,50,0.5
13,78,164,0.5
13,48,57,4
13,119,48,4
13,152,61,4
13,29,103,0.5
13,14,39,4
13,105,59,4
13,105,29,0.5
13,77,172,4
13,100,128,0.5
13,123,135,0.5
13,119,58,0.5
13,23,127,0.5
14,172,84,0.5
14,25,157,0.5
14,96,55,0.5
14,16,1,4
14,105,126,4
14,74,51,4
14,4,160,0.5
14,33,46,0.5
14,40,10,0.5
14,137,147,0.5
14,26,0,0.5
14,120,134,0.5
14,177,10,4
14,11,124,0.5
14,171,162,4
14,161,20,4
14,73,55,4
14,153,169,4
14,85,89,4
14,108,94,4
14,22,171,0.5
14,151,127,0.5
14,175,10,0.5
14,149,138,4
14,135,126,4
14,42,15,0.5
14,20,12,4
14,69,72,4
14,79,115,0.5
14,126,127,0.5
14,15,175,0.5
14,70,65,4
14,19,3,4
14,9,164,4
14,39,34,4
14,141,145,4
14,161,126,0.5
14,138,137,4
14,113,127,0.5
14,179,162,4
14,49,45,0.5
14,159,124,0.5
14,173,159,4
14,27,1,0.5
14,49,169,0.5
14,50,28,4
14,177,1,4
14,179,11,0.5
14,117,101,4
14,73,47,0.5
14,116,8,0.5
14,150,95,0.5
14,163,163,4
14,33,34,0.5
14,148,150,4
14,177,179,4
14,17,52,4
14,155,166,0.5
14,93,109,0.5
14,6,7,4
14,2,170,4
14,16,27,0.5
14,70,57,0.5
14,25,143,4
14,173,123,4
14,58,35,4
14,39,24,0.5
14,147,17,0.5
14,73,102,4
14,21,16,0.5
14,25,82,4
14,143,159,4
14,115,65,0.5
14,112,57,0.5
14,1,12,4
14,1,156,0.5
14,52,100,0.5
14,177,177,0.5
14,110,99,4
14,136,23,0.5
14,163,143,4
14,66,51,4
14,50,168,0.5
14,1,148,0.5
14,136,118,0.5
14,83,103,4
14,154,143,4
14,86,50,0.5
14,69,52,0.5
14,170,149,4
14,64,40,4
14,50,57,4
14,165,156,4
14,5,9,4
14,74,54,4
14,58,171,4
14,151,14,4
14,168,172,4
14,166,170,4
14,101,80,0.5
14,100,129,4
14,173,173,4
14,36,37,4
14,118,135,4
14,90,75,0.5
14,120,135,0.5
14,95,100,4
14,80,84,4
14,78,113,0.5
14,97,153,0.5
14,36,2,0.5
14,109,130,0.5
14,59,101,0.5
14,17,160,4
14,72,59,0.5
14,69,56,4
14,74,136,0.5
14,32,46,0.5
14,36,160,0.5
14,36,166,0.5
14,139,137,4
14,161,4,4
14,135,150,4
14,119,152,0.5
14,161,166,4
14,132,150,4
14,1,179,0.5
14,69,128,0.5
14,64,122,4
14,178,16,4
14,137,146,0.5
14,154,160,0.5
14,111,95,0.5
14,80,69,4
14,42,34,0.5
14,25,31,4
14,122,154,0.5
14,64,28,0.5
14,16,17,4
14,177,168,0.5
14,58,55,0.5
14,92,154,0.5
14,5,51,4
14,26,29,4
14,36,44,4
14,168,179,0.5
14,153,150,4
14,38,72,4
14,115,162,4
14,87,171,4
14,20,1,4
14,161,134,0.5
14,34,153,4
14,43,35,4
14,78,109,0.5
14,114,151,0.5
14,163,0,4
14,137,141,4
14,60,77,0.5
14,177,106,0.5
14,55,54,0.5
14,38,128,4
14,102,66,0.5
14,155,148,0.5
14,72,110,0.5
14,146,155,0.5
14,146,176,4
14,37,27,4
14,178,7,0.5
14,69,84,4
14,120,162,4
14,10,154,0.5
14,144,178,4
14,134,8,0.5
14,45,51,0.5
14,33,34,4
14,160,162,0.5
14,45,2,0.5
14,54,42,4
14,18,171,4
14,19,37,4
14,82,94,0.5
14,107,133,4
14,145,146,4
14,131,91,4
14,70,98,0.5
14,52,45,4
14,58,147,0.5
14,80,121,0.5
14,49,137,4
14,60,75,0.5
14,72,116,0.5
14,176,179,4
14,55,46,0.5
14,64,50,4
14,74,46,4
14,174,131,4
14,25,16,4
14,88,80,0.5
14,97,65,4
14,72,149,0.5
14,137,130,0.5
14,74,168,0.5
14,52,162,0.5
14,31,103,0.5
14,155,171,4
14,112,130,4
14,101,133,4
14,149,58,0.5
14,69,59,4
14,28,0,4
14,99,108,0.5
14,32,173,0.5
14,6,130,0.5
14,164,152,4
14,2,15,0.5
14,68,175,0.5
14,64,44,0.5
14,155,157,4
14,172,5,4
14,130,146,4
14,120,129,4
14,174,175,0.5
14,91,59,0.5
14,61,52,0.5
14,12,31,4
14,119,178,0.5
14,129,160,0.5
14,54,72,4
14,86,33,0.5
14,1,27,4
14,164,7,0.5
14,71,72,0.5
14,58,77,0.5
14,79,36,0.5
14,48,70,4
14,128,127,4
14,109,165,0.5
14,164,157,0.5
14,174,172,4
14,47,83,4
14,68,70,0.5
14,62,6,0.5
14,10,27,4
14,26,30,0.5
14,9,38,4
14,128,141,4
14,114,115,4
14,2,157,0.5
14,159,153,0.5
14,160,159,0.5
14,141,91,0.5
14,88,99,4
14,15,1,0.5
14,92,74,4
14,166,163,4
14,76,75,0.5
14,72,61,4
14,119,128,0.5
14,150,157,4
14,153,141,4
14,3,23,0.5
14,2,22,4
14,50,29,4
14,67,74,4
14,146,41,4
14,108,115,4
14,44,78,4
14,100,98,0.5
14,59,74,0.5
14,7,13,0.5
14,25,34,0.5
14,60,139,0.5
14,8,164,0.5
14,169,150,4
14,79,94,4
14,120,54,0.5
14,145,61,0.5
14,45,65,4
14,84,18,0.5
14,26,90,0.5
14,101,95,4
14,22,50,4
14,76,15,4
14,68,47,0.5
14,33,38,4
14,112,105,4
14,140,165,0.5
14,178,112,4
14,145,37,0.5
14,7,24,0.5
14,4,156,0.5
14,96,108,4
14,39,179,4
14,163,11,0.5
14,112,76,0.5
14,104,176,0.5
14,155,146,4
14,10,47,4
14,98,106,4
14,59,71,0.5
14,22,8,4
14,56,58,4
14,9,37,4
14,45,151,4
14,141,137,4
14,169,12,0.5
14,177,162,0.5
14,64,16,0.5
14,160,146,4
14,89,80,0.5
14,122,112,4
14,2,11,4
14,99,91,0.5
14,42,61,4
14,78,105,0.5
14,55,43,0.5
14,85,57,0.5
14,75,41,0.5
14,179,179,4
14,16,34,4
14,107,105,0.5
14,95,81,0.5
14,174,173,0.5
14,48,101,0.5
14,96,109,4
14,154,174,0.5
14,10,20,0.5
14,80,91,4
14,17,46,0.5
14,35,69,4
14,172,174,4
14,35,65,4
14,53,87,0.5
14,42,136,0.5
14,18,21,4
14,177,15,4
14,167,172,4
14,35,52,4
14,122,138,4
14,149,145,4
14,147,129,0.5
14,134,178,4
14,6,0,4
14,26,86,4
14,22,35,0.5
14,143,152,4
14,35,28,4
14,57,27,0.5
14,62,22,4
14,151,175,0.5
14,39,171,4
14,159,154,4
14,99,91,4
14,151,141,0.5
14,131,152,0.5
14,128,127,4
14,60,67,4
14,38,44,4
14,89,145,0.5
14,7,107,0.5
14,61,33,4
14,91,109,0.5
14,171,175,0.5
14,84,111,4
14,168,136,0.5
14,50,47,4
14,109,121,4
14,106,96,4
14,132,147,4
14,81,0,0.5
14,89,86,0.5
14,136,120,4
14,144,39,0.5
14,135,155,4
14,155,162,4
14,9,35,0.5
14,26,33,0.5
14,43,27,0.5
14,65,109,0.5
14,100,108,0.5
14,109,39,4
14,137,156,0.5
14,37,19,0.5
14,37,30,4
14,46,33,0.5
14,20,163,0.5
14,163,5,4
14,54,50,4
14,43,39,0.5
14,102,100,4
14,94,91,4
14,67,53,0.5
14,41,47,4
14,8,169,4
14,79,94,4
14,166,173,0.5
14,40,25,0.5
14,160,174,0.5
14,153,135,0.5
14,142,152,4
14,104,24,0.5
14,132,4,4
14,28,121,0.5
14,147,123,4
14,12,147,0.5
14,145,7,4
14,111,130,0.5
14,67,30,0.5
14,46,62,0.5
14,67,35,0.5
14,36,31,0.5
14,137,142,0.5
14,41,22,4
14,142,0,4
14,163,110,0.5
14,158,146,4
14,112,135,0.5
14,129,135,4
14,101,144,0.5
14,101,107,0.5
14,36,34,0.5
14,16,42,4
14,30,53,4
14,44,30,4
14,157,88,0.5
14,28,178,0.5
14,89,93,4
14,40,47,4
14,34,17,4
14,89,90,0.5
14,154,139,4
14,67,116,4
14,12,155,4
14,30,64,4
14,24,87,0.5
14,74,76,4
14,48,42,4
14,24,15,4
14,11,168,4
14,167,154,0.5
14,13,6,0.5
14,76,172,0.5
14,111,110,4
14,81,83,4
14,97,87,4
14,129,178,0.5
14,140,141,0.5
14,1,167,4
14,65,29,4
14,151,124,0.5
14,166,89,4
14,54,139,4
14,46,27,4
14,95,54,4
14,174,160,4
14,177,17,4
14,2,144,4
14,104,64,0.5
14,115,116,0.5
14,168,168,0.5
14,110,36,0.5
14,136,164,0.5
14,114,132,4
14,26,29,4
14,107,105,4
14,16,170,0.5
14,34,34,0.5
14,20,2,4
14,132,137,0.5
14,20,15,0.5
14,18,114,4
14,53,55,4
14,44,91,0.5
14,1,166,4
14,72,51,4
14,21,24,4
14,71,80,0.5
14,34,9,0.5
14,11,48,0.5
14,135,47,4
14,2,34,4
14,56,4,0.5
14,95,98,0.5
14,164,142,4
14,67,29,0.5
14,61,41,0.5
14,176,7,0.5
14,170,1,4
14,80,47,0.5
14,84,131,4
14,32,43,4
14,155,151,4
14,21,34,0.5
14,76,70,4
14,159,126,0.5
14,105,115,0.5
14,38,50,0.5
14,32,50,0.5
14,108,143,0.5
14,42,41,0.5
14,49,56,4
14,54,23,4
14,119,131,4
14,100,121,0.5
14,97,25,4
14,144,178,4
14,36,35,0.5
14,15,11,4
14,116,53,0.5
14,81,82,0.5
14,28,0,0.5
14,75,136,0.5
14,110,176,0.5
14,119,122,4
14,17,20,4
14,67,129,4
14,66,123,0.5
14,14,1,0.5
14,161,138,4
14,72,58,4
14,129,117,4
14,78,75,0.5
14,19,17,0.5
14,130,112,0.5
14,172,0,4
14,14,2,4
14,74,80,4
14,135,139,0.5
14,97,87,4
14,87,66,4
14,167,84,0.5
14,136,159,0.5
14,140,108,0.5
14,87,70,4
14,168,172,0.5
14,27,43,4
14,12,171,4
14,29,179,4
14,134,3,4
14,34,45,4
14,106,121,4
14,77,95,0.5
14,54,18,4
14,128,92,4
14,58,36,0.5
14,131,128,4
14,173,11,0.5
14,124,140,4
14,37,44,0.5
14,29,12,4
14,127,123,4
14,41,43,4
14,60,44,0.5
14,129,162,4
14,142,151,4
14,178,178,0.5
14,8,31,0.5
14,116,102,4
14,44,20,0.5
14,16,163,0.5
14,125,42,0.5
14,169,78,4
14,96,114,0.5
14,117,122,4
14,146,90,4
14,83,63,4
14,115,126,4
14,42,62,4
14,173,5,4
14,178,2,4
14,123,20,0.5
14,54,67,0.5
14,79,64,4
14,16,18,0.5
14,127,132,4
14,32,159,0.5
14,87,67,4
14,170,158,4
14,39,161,0.5
14,122,158,0.5
14,7,20,4
14,118,79,0.5
14,124,124,0.5
14,85,78,4
14,121,135,4
14,153,146,0.5
14,79,88,0.5
14,95,55,0.5
14,46,69,0.5
14,178,17,4
14,24,43,0.5
14,131,110,4
14,41,10,0.5
14,17,8,4
14,63,25,4
14,134,131,0.5
14,6,166,0.5
14,36,47,0.5
14,145,137,0.5
14,16,168,0.5
14,39,47,4
14,11,134,0.5
14,101,157,4
14,125,126,4
14,86,146,4
14,166,40,0.5
14,86,97,0.5
14,135,122,4
14,155,139,0.5
14,1,171,0.5
14,159,155,4
14,6,178,0.5
14,165,178,0.5
14,154,176,0.5
14,139,126,4
14,153,111,0.5
14,122,136,0.5
14,82,107,0.5
14,103,79,0.5
14,15,127,0.5
14,53,116,4
14,13,176,0.5
14,119,53,0.5
14,145,81,4
14,143,156,4
14,98,79,0.5
14,70,173,0.5
14,166,126,0.5
14,14,18,0.5
14,64,70,0.5
14,20,38,4
14,168,4,0.5
14,122,76,4
14,179,179,4
14,72,95,0.5
14,50,150,0.5
14,164,145,0.5
14,57,11,0.5
14,164,173,0.5
14,157,157,0.5
14,20,84,0.5
14,87,84,4
14,68,30,0.5
14,41,19,0.5
14,47,29,4
14,62,83,4
14,70,107,0.5
14,138,123,0.5
14,172,174,4
14,75,66,4
14,12,134,0.5
14,65,6,4
14,93,105,4
14,163,148,4
14,70,88,0.5
14,139,142,0.5
14,87,83,0.5
14,120,131,4
14,160,127,0.5
14,56,39,0.5
14,25,36,0.5
14,150,154,4
14,18,22,0.5
14,97,110,0.5
14,28,64,4
14,171,0,0.5
14,152,71,4
14,84,45,0.5
14,64,70,0.5
14,137,141,4
14,144,107,0.5
14,138,140,0.5
14,19,16,4
14,53,23,0.5
14,12,8,0.5
14,46,57,4
14,42,46,4
14,73,70,4
14,59,86,4
14,93,113,4
14,32,36,0.5
14,112,85,0.5
14,5,16,4
14,105,108,4
14,12,42,4
14,54,37,0.5
14,100,108,0.5
14,98,81,4
14,123,26,4
14,37,148,0.5
14,23,23,4
14,101,143,0.5
14,85,98,4
14,98,141,0.5
14,65,61,4
14,40,40,0.5
14,84,67,4
14,85,67,0.5
14,12,20,4
14,175,115,0.5
14,50,93,4
14,105,28,0.5
14,41,31,4
14,153,158,4
14,108,88,0.5
14,144,149,4
14,179,171,0.5
14,18,11,4
14,26,14,4
14,153,156,4
14,116,150,0.5
14,86,40,0.5
14,120,129,0.5
14,45,35,4
14,111,130,4
14,90,88,4
14,88,26,0.5
14,82,65,4
14,170,14,0.5
14,133,113,0.5
14,78,87,4
14,152,31,0.5
14,154,148,0.5
14,109,113,4
14,179,143,4
14,114,141,0.5
14,124,133,4
14,150,149,0.5
14,23,36,4
14,179,169,0.5
14,180,10,0.5
14,58,67,0.5
14,73,55,4
14,37,33,4
14,14,3,0.5
14,175,13,0.5
14,180,15,0.5
14,26,20,4
14,145,178,0.5
14,5,179,4
14,159,9,0.5
14,87,87,0.5
14,144,140,0.5
14,168,47,4
14,180,12,0.5
14,135,122,4
14,25,168,0.5
14,95,120,4
14,47,45,4
14,106,99,0.5
14,15,42,4
14,2,97,4
14,26,7,0.5
14,92,172,0.5
14,71,62,4
14,79,102,4
14,138,19,4
14,128,141,4
14,137,139,0.5
14,138,146,0.5
14,37,40,4
14,79,106,4
14,100,124,0.5
14,18,9,0.5
14,122,138,4
14,117,156,0.5
14,152,21,0.5
14,59,131,4
14,146,131,4
14,91,91,0.5
14,138,153,4
14,69,75,0.5
14,55,29,4
14,61,55,4
14,131,141,0.5
14,19,33,4
14,139,131,4
14,114,131,0.5
14,79,62,0.5
14,67,80,4
14,123,127,4
14,26,44,0.5
14,125,110,0.5
14,49,154,4
14,46,60,0.5
14,36,29,4
14,87,91,4
14,117,145,0.5
14,38,62,0.5
14,57,72,0.5
14,171,141,4
14,127,125,4
14,157,137,0.5
14,162,176,0.5
14,19,3,0.5
14,28,41,4
14,88,88,0.5
14,111,123,4
14,122,100,0.5
14,176,3,4
14,124,132,4
14,82,15,4
14,109,123,4
14,163,55,4
14,155,170,0.5
14,19,30,0.5
14,64,24,4
14,126,143,4
14,29,46,0.5
14,122,160,0.5
14,135,139,0.5
14,136,138,4
14,153,140,4
14,55,31,4
14,128,152,0.5
14,23,28,0.5
14,145,131,4
14,14,150,0.5
14,148,147,4
14,152,157,0.5
15,32,148,0.5
15,81,90.5,4
15,100,103,0.5
15,53,50,4
15,37,40,4
15,73,86,0.5
15,172,162,4
15,25,40.5,4
15,96,90.75,4
15,16,31,0.5
15,105,118,4
15,74,105,0.5
15,4,4,4
15,33,56,0.5
15,40,38,0.5
15,137,129,0.5
15,26,46,4
15,120,130,4
15,177,2,4
15,11,24,4
15,171,154,0.5
15,161,136,0.5
15,73,87,0.5
15,153,141,0.5
15,85,73,4
15,108,130,4
15,22,1,0.5
15,151,135,4
15,175,174,0.5
15,149,134,4
15,135,134,4
15,42,59,0.5
15,20,64,0.5
15,69,54,0.5
15,79,63,0.5
15,126,123,0.5
15,15,31,0.5
15,70,57,4
15,19,67,0.5
15,9,26,4
15,39,24,0.5
15,141,147,4
15,161,138,0.5
15,138,123,0.5
15,113,119,4
15,179,0,0.5
15,49,51,4
15,159,124,4
15,173,11,0.5
15,27,29,4
15,49,57,4
15,50,144,0.5
15,177,167,0.5
15,179,163,4
15,117,123,4
15,73,63,4
15,116,122,0.5
15,150,151,0.5
15,163,159,4
15,33,46,0.5
15,148,130,0.5
15,177,167,0.5
15,17,84,0.5
15,155,144,4
15,93,79,0.5
15,6,5,0.5
15,2,98,0.5
15,16,69,0.5
15,70,57,0.5
15,25,53,0.5
15,173,177,0.5
15,58,69,4
15,39,40,0.5
15,147,127,0.5
15,73,68,0.5
15,21,38,4
15,25,36,4
15,143,131,0.5
15,115,127,4
15,112,131,4
15,1,168,0.5
15,1,16,4
15,52,48,4
15,177,169,4
15,110,117,0.5
15,136,139,4
15,163,147,4
15,66,63,0.5
15,50,50,0.5
15,1,90,4
15,136,134,0.5
15,83,81,0.5
15,154,145,0.5
15,86,60,0.5
15,69,84,0.5
15,170,135,0.5
15,64,58,4
15,50,39,4
15,165,0,0.5
15,5,13,0.5
15,74,40,0.5
15,58,47,4
15,151,122,0.5
15,168,88,0.5
15,166,150,4
15,101,124,4
15,100,129,0.5
15,173,171,4
15,36,29,0.5
15,118,129,0.5
15,90,93.75,4
15,120,127,0.5
15,95,88,4
15,80,84,4
15,78,81,0.5
15,97,53,0.5
15,36,30,0.5
15,109,130,4
15,59,55,4
15,17,44,0.5
15,72,63,4
15,69,54,0.5
15,74,134,0.5
15,32,34,4
15,36,36,0.5
15,36,28,0.5
15,139,133,0.5
15,161,124,0.5
15,135,130,4
15,119,130,0.5
15,161,144,4
15,132,124,4
15,1,173,0.5
15,69,38,4
15,64,52,4
15,178,136,0.5
15,137,142,0.5
15,154,136,0.5
15,111,137,0.5
15,80,53,0.5
15,42,52,0.5
15,25,35,4
15,122,122,4
15,64,50,4
15,16,23,4
15,177,170,4
15,58,49,4
15,92,102,4
15,5,11,4
15,26,27,4
15,36,24,4
15,168,147,0.5
15,153,138,0.5
15,38,38,4
15,115,126,4
15,87,123,0.5
15,20,5,0.5
15,161,136,0.5
15,34,47,4
15,43,47,4
15,78,81,4
15,114,139,0.5
15,163,166,4
15,137,135,4
15,60,47,4
15,177,156,4
15,55,42,0.5
15,38,54,0.5
15,102,120,4
15,155,146,4
15,72,60,4
15,146,119,0.5
15,146,134,0.5
15,37,37,4
15,178,17,0.5
15,69,64,4
15,120,126.25,4
15,10,174,0.5
15,144,140,0.5
15,134,118,0.5
15,45,43,0.5
15,33,34,0.5
15,160,136,4
15,45,44,0.5
15,54,64,0.5
15,18,39,4
15,19,27,4
15,82,68,4
15,107,119,4
15,145,132,4
15,131,127,4
15,70,60,0.5
15,52,45,0.5
15,58,53,0.5
15,80,79,0.5
15,49,55,4
15,60,59,0.5
15,72,56,4
15,176,171,0.5
15,55,54,4
15,64,42,4
15,74,128,0.5
15,174,165,0.5
15,25,64,0.5
15,88,100,4
15,97,129,0.5
15,72,69,4
15,137,138,4
15,74,78,4
15,52,56,4
15,31,57,4
15,155,139,0.5
15,112,132,4
15,101,109,4
15,149,112,4
15,69,61,4
15,28,32,0.5
15,99,128,0.5
15,32,17,4
15,6,0,4
15,164,148,4
15,2,1,4
15,68,61,0.5
15,64,58,0.5
15,155,141,4
15,172,151,0.5
15,130,138,0.5
15,120,139,0.5
15,174,161,4
15,91,93,0.5
15,61,66,0.5
15,12,11,0.5
15,119,138,4
15,129,148,4
15,54,70,0.5
15,86,97,4
15,1,25,0.5
15,164,129,4
15,71,70,4
15,58,67,0.5
15,79,72,4
15,48,120,0.5
15,128,133,4
15,109,113,0.5
15,164,177,0.5
15,174,42,0.5
15,47,63,0.5
15,68,72,0.5
15,62,60,0.5
15,10,3,0.5
15,26,56,0.5
15,9,12,4
15,128,113,0.5
15,114,95,0.5
15,2,5,4
15,159,65,0.5
15,160,9,0.5
15,141,139,4
15,88,89,4
15,15,27,4
15,92,88,4
15,166,11,0.5
15,76,87,0.5
15,72,59,4
15,119,126,4
15,150,153,0.5
15,153,153,0.5
15,3,173,0.5
15,2,130,0.5
15,50,31,4
15,67,54,4
15,146,125,0.5
15,108,107,4
15,44,46,0.5
15,100,130,0.5
15,59,46,4
15,7,177,0.5
15,25,2,0.5
15,60,59,0.5
15,8,170,4
15,169,38,0.5
15,79,148,4
15,120,124,4
15,145,133,0.5
15,45,45,0.5
15,84,94,4
15,26,20,0.5
15,101,111,4
15,22,38,4
15,76,69,4
15,68,55,4
15,33,60,0.5
15,112,123,4
15,140,53,0.5
15,178,174,4
15,145,147,0.5
15,7,10,4
15,4,0,4
15,96,94,0.5
15,39,45,0.5
15,163,117,0.5
15,112,114,4
15,104,112,4
15,155,134,0.5
15,10,15,4
15,98,134,4
15,59,27,0.5
15,22,42,4
15,56,58,4
15,9,29,4
15,45,47,4
15,141,137,4
15,169,38,0.5
15,177,94,0.5
15,64,42,0.5
15,160,144,4
15,89,62,0.5
15,122,128,4
15,2,155,0.5
15,99,95,0.5
15,42,59,0.5
15,78,81,4
15,55,137,0.5
15,85,63,4
15,75,57,0.5
15,179,5,0.5
15,16,20,4
15,107,41,0.5
15,95,89,4
15,174,7,0.5
15,48,127,0.5
15,96,117,0.5
15,154,148,4
15,10,14,0.5
15,80,63,4
15,17,18,4
15,35,47,4
15,172,148,4
15,35,39,0.5
15,53,49,4
15,42,44,0.5
15,18,37,0.5
15,177,163,4
15,167,168,4
15,35,160,0.5
15,122,146,0.5
15,149,137,0.5
15,147,129,0.5
15,134,134,4
15,6,0,0.5
15,26,18,4
15,22,41,0.5
15,143,144,0.5
15,35,44,0.5
15,57,49,0.5
15,62,70,4
15,151,135,4
15,39,25,4
15,159,126,0.5
15,99,119,4
15,151,141,0.5
15,131,122,0.5
15,128,123,4
15,60,67,4
15,38,40,4
15,89,83,4
15,7,177,0.5
15,61,37,4
15,91,85,0.5
15,171,5,0.5
15,84,73,4
15,168,140,0.5
15,50,53,0.5
15,109,115,4
15,106,106,4
15,132,61,0.5
15,81,76,4
15,89,126,0.5
15,136,78,0.5
15,144,145,0.5
15,135,141,4
15,155,124,0.5
15,9,161,0.5
15,26,41,0.5
15,43,39,4
15,65,51,0.5
15,100,72,0.5
15,109,121,4
15,137,126,4
15,37,103,0.5
15,37,30,0.5
15,46,71,0.5
15,20,25,4
15,163,141,4
15,54,58,0.5
15,43,41,0.5
15,102,104,4
15,94,91,0.5
15,67,25,0.5
15,41,39,0.5
15,8,9,0.5
15,79,50,4
15,166,147,0.5
15,40,39,0.5
15,160,16,0.5
15,153,131,0.5
15,142,142,4
15,104,126,4
15,132,138,0.5
15,28,51,0.5
15,147,149,0.5
15,12,25,0.5
15,145,127,0.5
15,111,98,4
15,67,52,0.5
15,46,54,4
15,67,55,4
15,36,55,0.5
15,137,142,4
15,41,46,0.5
15,142,138,0.5
15,163,147.75,4
15,158,120,4
15,112,117,0.5
15,129,135,0.5
15,101,100,0.5
15,101,83,4
15,36,54,4
15,16,22,4
15,30,31,4
15,44,50,4
15,157,138,4
15,28,36,4
15,89,81,0.5
15,40,49,4
15,34,41,0.5
15,89,90,4
15,154,133,0.5
15,67,60,4
15,12,19,0.5
15,30,38,4
15,24,21,0.5
15,74,62,4
15,48,60,0.5
15,24,35,4
15,11,40,4
15,167,156,4
15,13,22,4
15,76,70,4
15,111,120,4
15,81,67,4
15,97,141,0.5
15,129,144,0.5
15,140,137,4
15,1,165,4
15,65,63,0.5
15,151,140,4
15,166,151,4
15,54,51,4
15,46,51,0.5
15,95,112,4
15,174,12,0.5
15,177,105,0.5
15,2,14,4
15,104,118,4
15,115,128,4
15,168,168,4
15,110,112,0.5
15,136,124,4
15,114,124,0.5
15,26,53,0.5
15,107,123,4
15,16,28,4
15,34,26,0.5
15,20,24,4
15,132,141,4
15,20,135,0.5
15,18,38,4
15,53,55,4
15,44,63,4
15,1,8,0.5
15,72,53,0.5
15,21,32,4
15,71,56,4
15,34,25,4
15,11,28,4
15,135,113,0.5
15,2,12,4
15,56,60,4
15,95,100,4
15,164,146.5,4
15,67,73,4
15,61,57,0.5
15,176,5,0.5
15,170,169,0.5
15,80,83,4
15,84,73,0.5
15,32,39,4
15,155,139,4
15,21,52,0.5
15,76,132,0.5
15,159,134,0.5
15,105,111,4
15,38,52,4
15,32,20,0.5
15,108,131,0.5
15,42,45,4
15,49,36,0.5
15,54,37,0.5
15,119,125,4
15,100,117,0.5
15,97,107,4
15,144,122,0.5
15,36,53,0.5
15,15,21,4
15,116,127,4
15,81,66,4
15,28,50,4
15,75,54,4
15,110,102,4
15,119,104,4
15,17,6,4
15,67,55,4
15,66,61,4
15,14,15,4
15,161,158,4
15,72,64,4
15,129,133,4
15,78,85,4
15,19,35,4
15,130,138,0.5
15,172,166,4
15,14,24,4
15,74,68,4
15,135,139,0.5
15,97,135,0.5
15,87,84,0.5
15,167,12,0.5
15,136,141,4
15,140,130,4
15,87,78,4
15,168,144,4
15,27,29,4
15,12,173,0.5
15,29,15,0.5
15,134,147,4
15,34,55,0.5
15,106,119,4
15,77,55,0.5
15,54,48,0.5
15,128,128,0.5
15,58,56,4
15,131,128,4
15,173,171,4
15,124,132,0.5
15,37,32,0.5
15,29,24,0.5
15,127,121,4
15,41,43,0.5
15,60,50,4
15,129,140,4
15,142,143,0.5
15,178,176,4
15,8,19,0.5
15,116,146,0.5
15,44,54,4
15,16,167,0.5
15,125,128,4
15,169,164,4
15,96,88,4
15,117,132,0.5
15,146,136,0.5
15,83,81,4
15,115,116,4
15,42,86,0.5
15,173,165,4
15,178,172,4
15,123,124,4
15,54,47,4
15,79,70,0.5
15,16,6,0.5
15,127,122,4
15,32,47,0.5
15,87,85,4
15,170,166,0.5
15,39,49,4
15,122,128,0.5
15,7,20,0.5
15,118,133,0.5
15,124,126,0.5
15,85,104,4
15,121,69,0.5
15,153,46,0.5
15,79,86,0.5
15,95,101,0.5
15,46,51,4
15,178,7,0.5
15,24,31,4
15,131,138,4
15,41,44,4
15,17,26,4
15,63,63,4
15,134,131,4
15,6,168,0.5
15,36,67,0.5
15,145,125,0.5
15,16,32,4
15,39,43,0.5
15,11,22,0.5
15,101,115,0.5
15,125,144,4
15,86,70,0.5
15,166,146,0.5
15,86,89,4
15,135,114,4
15,155,139,0.5
15,1,173,4
15,159,153,0.5
15,6,4,4
15,165,144,0.5
15,154,132,0.5
15,139,142,0.5
15,153,125,0.5
15,122,114,0.5
15,82,80.25,0.5
15,103,115,4
15,15,107,0.5
15,53,72,0.5
15,13,2,0.5
15,119,119,4
15,145,135,0.5
15,143,142,4
15,98,111,4
15,70,49,0.5
15,166,156,0.5
15,14,20,4
15,64,74,0.5
15,20,24,0.5
15,168,144,4
15,122,130,0.5
15,179,173,0.5
15,72,75,0.5
15,50,44,0.5
15,164,145,0.5
15,57,49,0.5
15,164,129,0.5
15,157,155,4
15,20,26,0.5
15,87,84,0.5
15,68,54,0.5
15,41,23,0.5
15,47,43,4
15,62,61,4
15,70,71,0.5
15,138,139,4
15,172,152,4
15,75,68,4
15,12,30,4
15,65,38,0.5
15,93,105,4
15,163,146,0.5
15,70,76,4
15,139,140,0.5
15,87,89,4
15,120,125,4
15,160,159,0.5
15,56,63,4
15,25,14,0.5
15,150,138,4
15,18,22,4
15,97,92,4
15,28,10,0.5
15,171,168,4
15,152,157,0.5
15,84,89,0.5
15,64,46,4
15,137,133,0.5
15,144,127,4
15,138,124,0.5
15,19,50,0.5
15,53,49,0.5
15,12,32,4
15,46,31,4
15,42,48,4
15,73,70,4
15,59,64,0.5
15,93,91,4
15,32,32,4
15,112,123,0.5
15,5,176,4
15,105,128,0.5
15,12,0.5,0.5
15,54,115,0.5
15,100,108,0.5
15,98,171,0.5
15,123,126,4
15,37,58,4
15,23,29,4
15,101,125,4
15,85,44,0.5
15,98,107,4
15,65,61,0.5
15,40,34,0.5
15,84,47,4
15,85,67,0.5
15,12,20,4
15,175,155,4
15,50,39,4
15,105,134,4
15,41,43,4
15,153,134,4
15,108,134,0.5
15,144,127,4
15,179,171,4
15,18,13,4
15,26,28,4
15,153,112,0.5
15,116,114,0.5
15,86,150,0.5
15,120,133,0.5
15,45,57,4
15,111,130,4
15,90,92,4
15,88,84,0.5
15,82,67,4
15,170,160,4
15,133,149,0.5
15,78,93,4
15,152,123,0.5
15,154,58,0.5
15,109,127,4
15,179,175,4
15,114,119,4
15,124,129,0.5
15,150,131,0.5
15,23,28,4
15,179,1,0.5
15,180,4,0.5
15,58,49,4
15,73,141,0.5
15,37,39,4
15,14,45,0.5
15,175,1,4
15,180,179,4
15,26,42,4
15,145,146,0.5
15,5,1,4
15,159,151,4
15,87,77,4
15,144,132,4
15,168,155,4
15,180,4,4
15,135,144,0.5
15,25,40,0.5
15,95,104,0.5
15,47,37,0.5
15,106,133,0.5
15,15,28,4
15,2,167,0.5
15,26,37,0.5
15,92,112,4
15,71,76,4
15,79,100,0.5
15,138,143,0.5
15,128,129,0.5
15,137,139,4
15,138,146,4
15,37,42,0.5
15,79,64,4
15,100,114,4
15,18,25,0.5
15,122,106,4
15,117,122,0.5
15,152,139,4
15,59,53,4
15,146,135,0.5
15,91,99,4
15,138,147,4
15,69,77,0.5
15,55,37,0.5
15,61,27,4
15,131,115,0.5
15,19,157,0.5
15,139,123,4
15,114,145,4
15,79,62,0.5
15,67,56,4
15,123,133,0.5
15,26,30,0.5
15,125,106,4
15,49,54,4
15,46,56,4
15,36,29,4
15,87,63,0.5
15,117,121,4
15,38,24,4
15,57,34,0.5
15,171,125,0.5
15,127,115,0.5
15,157,137,0.5
15,162,148,4
15,19,37,4
15,28,9,0.5
15,88,110,4
15,111,111,0.5
15,122,126,0.5
15,176,23,0.5
15,124,134,4
15,82,97,4
15,109,55,0.5
15,163,157,4
15,155,148,0.5
15,19,20,4
15,64,62,4
15,126,137,0.5
15,29,42,4
15,122,148,0.5
15,135,145,4
15,136,124,0.5
15,153,140,0.5
15,55,53,0.5
16,81,45,0.5
16,100,33,0.5
16,53,38,4
16,37,36,4
16,73,178,0.5
16,172,160,4
16,25,19,0.5
16,96,113,0.5
16,16,24.5,0.5
16,105,136,0.5
16,74,95,0.5
16,4,26,0.5
16,33,12,4
16,40,142,4
16,137,135,4
16,26,30,4
16,120,126,4
16,177,176,4
16,11,20,4
16,171,152,0.5
16,161,160,4
16,73,83,4
16,153,169,0.5
16,85,39,0.5
16,108,118,4
16,22,1,0.5
16,151,157,0.5
16,175,170,4
16,149,158,0.5
16,135,140,4
16,42,23,0.5
16,20,20,0.5
16,69,28,0.5
16,79,61,4
16,126,131,4
16,15,5,0.5
16,70,121,0.5
16,19,27,0.5
16,9,10,4
16,39,16,4
16,141,149,0.5
16,161,146,0.5
16,138,135,0.5
16,113,105,4
16,179,4,4
16,49,25,4
16,159,14,0.5
16,173,179,4
16,27,13,0.5
16,49,23,0.5
16,50,32,4
16,177,173,0.5
16,179,171.5,4
16,117,131,0.5
16,73,81,0.5
16,116,120,4
16,150,145,4
16,163,147,0.5
16,33,58,0.5
16,148,158,4
16,177,165,0.5
16,17,20,4
16,155,156,0.5
16,93,79,0.5
16,6,3,0.5
16,2,12,0.5
16,16,35,4
16,70,59,0.5
16,25,23,0.5
16,173,19,0.5
16,58,67,4
16,39,34,4
16,147,143,0.5
16,73,66,0.5
16,21,40,0.5
16,25,34,4
16,143,123,0.5
16,115,127,4
16,112,113,0.5
16,1,10,0.5
16,1,2.75,4
16,52,46,4
16,177,5,4
16,110,139,0.5
16,136,143,4
16,163,161,4
16,66,49,0.5
16,50,50,0.5
16,1,2,4
16,136,148,0.5
16,83,75,4
16,154,177,4
16,86,96,4
16,69,60,0.5
16,170,167,4
16,64,74,0.5
16,50,69,0.5
16,165,82,0.5
16,5,175,0.5
16,74,60,4
16,58,37,4
16,151,146,4
16,168,76,0.5
16,166,163.5,4
16,101,26,0.5
16,100,33,0.5
16,173,163,0.5
16,36,37,4
16,118,129,0.5
16,90,45,0.5
16,120,128.25,0.5
16,95,28,0.5
16,80,106,0.5
16,78,23,0.5
16,97,169,0.5
16,36,12,4
16,109,156,0.5
16,59,45,4
16,17,23,4
16,72,25,0.5
16,69,2,0.5
16,74,42,0.5
16,32,38,4
16,36,22,0.5
16,36,18,0.5
16,139,139,4
16,161,6,0.5
16,135,128,0.5
16,119,138,4
16,161,152,4
16,132,132,4
16,1,1,0.5
16,69,48,0.5
16,64,28,4
16,178,16,0.5
16,137,132,4
16,154,154,0.5
16,111,137,4
16,80,77,4
16,42,34,4
16,25,31,4
16,122,122,4
16,64,108,0.5
16,16,5,0.5
16,177,120,0.5
16,58,55,4
16,92,144,0.5
16,5,3,4
16,26,17,0.5
16,36,22,4
16,168,175,4
16,153,152,4
16,38,30,4
16,115,112,4
16,87,75,4
16,20,17,0.5
16,161,174,0.5
16,34,33,4
16,43,43,0.5
16,78,45,0.5
16,114,113,4
16,163,128,0.5
16,137,133,0.5
16,60,37,0.5
16,177,0,0.5
16,55,142,0.5
16,38,38,0.5
16,102,112,0.5
16,155,142,4
16,72,66,4
16,146,147,0.5
16,146,148,4
16,37,29,0.5
16,178,179,4
16,69,68,4
16,120,128,0.5
16,10,24,4
16,144,166,4
16,134,154,4
16,45,41,0.5
16,33,178,0.5
16,160,166,4
16,45,24,0.5
16,54,142,0.5
16,18,21,4
16,19,23,0.5
16,82,80,0.5
16,107,125,0.5
16,145,144,4
16,131,129,4
16,70,44,4
16,52,45,4
16,58,47,4
16,80,141,0.5
16,49,47,0.5
16,60,149,0.5
16,72,58,0.5
16,176,145,0.5
16,55,48,4
16,64,36,4
16,74,20,0.5
16,174,153,0.5
16,25,24,4
16,88,85.5,4
16,97,73,4
16,72,87,0.5
16,137,120,4
16,74,60,4
16,52,120,0.5
16,31,31,0.5
16,155,159,4
16,112,108,4
16,101,87,0.5
16,149,32,0.5
16,69,149,0.5
16,28,50,0.5
16,99,70,0.5
16,32,33,4
16,6,20,4
16,164,120,0.5
16,2,171,0.5
16,68,61,4
16,64,58,4
16,155,35,0.5
16,172,21,4
16,130,160,0.5
16,120,139,0.5
16,174,161,4
16,91,133,0.5
16,61,50,0.5
16,12,27,4
16,119,112,0.5
16,129,38,4
16,54,60,4
16,86,53,0.5
16,1,167,4
16,164,157,0.5
16,71,70,4
16,58,67,4
16,79,72,0.5
16,48,58,4
16,128,141,0.5
16,109,107,4
16,164,153,0.5
16,174,166,4
16,47,51,0.5
16,68,8,0.5
16,62,46,0.5
16,10,15,4
16,26,24,4
16,9,110,0.5
16,128,147,0.5
16,114,119,4
16,2,5,4
16,159,153,0.5
16,160,157,4
16,141,153,0.5
16,88,81,4
16,15,143,4
16,92,80,0.5
16,166,175,4
16,76,35,0.5
16,72,103,0.5
16,119,34,4
16,150,111,0.5
16,153,171,0.5
16,3,9,4
16,2,10,4
16,50,52.5,4
16,67,159.25,0.5
16,146,156.5,4
16,108,43,0.5
16,44,142,0.5
16,100,42,4
16,59,172,0.5
16,7,10.75,4
16,25,44,0.5
16,60,149,0.5
16,8,132,0.5
16,169,166,4
16,79,70,4
16,120,126,4
16,145,143,4
16,45,49,0.5
16,84,84,4
16,26,52,0.5
16,101,121,4
16,22,26,4
16,76,41,0.5
16,68,63,4
16,33,48,0.5
16,112,99,4
16,140,135,4
16,178,172,4
16,145,145,4
16,7,18,4
16,4,170,0.5
16,96,104,4
16,39,15,0.5
16,163,135,0.5
16,112,140,0.5
16,104,114,4
16,155,168,4
16,10,15,4
16,98,100,4
16,59,53,4
16,22,52,0.5
16,56,54,0.5
16,9,9,4
16,45,31,4
16,141,161,4
16,169,164,4
16,177,18,0.5
16,64,58,0.5
16,160,150,4
16,89,120,0.5
16,122,156,4
16,2,11,0.5
16,99,11,0.5
16,42,101,0.5
16,78,43,0.5
16,55,25,0.5
16,85,73,4
16,75,133,0.5
16,179,85,0.5
16,16,22,4
16,107,15,0.5
16,95,97,4
16,174,155,4
16,48,27,0.5
16,96,89,0.5
16,154,158,4
16,10,14,4
16,80,173,4
16,17,94,0.5
16,35,25,4
16,172,176,4
16,35,13,4
16,53,35,4
16,42,40,0.5
16,18,37,0.5
16,177,3,4
16,167,168,4
16,35,38,4
16,122,14,0.5
16,149,139,0.5
16,147,141,0.5
16,134,128,4
16,6,170,0.5
16,26,22,4
16,22,19,0.5
16,143,162,4
16,35,26,4
16,57,15,0.5
16,62,18,0.5
16,151,147,4
16,39,37,0.5
16,159,152,4
16,99,95,4
16,151,167,4
16,131,152,0.5
16,128,151,0.5
16,60,45,0.5
16,38,46,4
16,89,75,0.5
16,7,179,4
16,61,61,4
16,91,109,0.5
16,171,161,4
16,84,73,4
16,168,154,0.5
16,50,175,0.5
16,109,117,4
16,106,160,0.5
16,132,133,4
16,81,72,4
16,89,130,0.5
16,136,152,4
16,144,129,4
16,135,139,4
16,155,156,0.5
16,9,13,4
16,26,27,4
16,43,75,0.5
16,65,143,0.5
16,100,106,4
16,109,97,0.5
16,137,76,0.5
16,37,41,4
16,37,144,0.5
16,46,55,4
16,20,21,0.5
16,163,9,0.5
16,54,44,0.5
16,43,33,0.5
16,102,114,4
16,94,89,4
16,67,93,0.5
16,41,17,0.5
16,8,21,4
16,79,66,0.5
16,166,17,0.5
16,40,43,4
16,160,114,4
16,153,29,0.5
16,142,126,4
16,104,178,0.5
16,132,138,4
16,28,35,0.5
16,147,155,4
16,12,7,4
16,145,157,4
16,111,114,0.5
16,67,44,0.5
16,46,48,4
16,67,173,0.5
16,36,21,4
16,137,138,4
16,41,52,4
16,142,146,4
16,163,142,0.5
16,158,40,0.5
16,112,111,4
16,129,127,4
16,101,96,4
16,101,107,0.5
16,36,18,0.5
16,16,178,0.5
16,30,33,0.5
16,44,156,0.5
16,157,152,4
16,28,22,4
16,89,79,4
16,40,47,0.5
16,34,47,0.5
16,89,90,0.5
16,154,133,4
16,67,46,0.5
16,12,113,4
16,30,28,4
16,24,25,0.5
16,74,78,4
16,48,42,4
16,24,31,4
16,11,24,4
16,167,156,4
16,13,16,0.5
16,76,76,4
16,111,110,4
16,81,77,4
16,97,85,0.5
16,129,146,0.5
16,140,137,4
16,1,171,4
16,65,71,0.5
16,151,146,0.5
16,166,159,4
16,54,41,4
16,46,39,0.5
16,95,162,4
16,174,164,4
16,177,9,4
16,2,8,4
16,104,178,0.5
16,115,116,4
16,168,164,4
16,110,106,4
16,136,128,0.5
16,114,104,4
16,26,17,0.5
16,107,41,0.5
16,16,28,4
16,34,20,4
16,20,32,4
16,132,141,4
16,20,27,4
16,18,34,4
16,53,55,4
16,44,53,4
16,1,176,4
16,72,53,0.5
16,21,38,0.5
16,71,52,0.5
16,34,35,0.5
16,11,30,0.5
16,135,131,4
16,2,166,4
16,56,32,0.5
16,95,40,0.5
16,164,134,0.5
16,67,73,4
16,61,41,4
16,176,43,4
16,170,169,0.5
16,80,11,0.5
16,84,87,0.5
16,32,25,4
16,155,159,0.5
16,21,150,0.5
16,76,64,4
16,159,168,0.5
16,105,115,4
16,38,116,0.5
16,32,124,0.5
16,108,127,0.5
16,42,63,4
16,49,56,0.5
16,54,47,0.5
16,119,27,0.5
16,100,87,4
16,97,97,4
16,144,154,4
16,36,33,0.5
16,15,29,4
16,116,111,4
16,81,80,0.5
16,28,6,4
16,75,72,4
16,110,114,4
16,119,126,4
16,17,22,0.5
16,67,69,4
16,66,27,0.5
16,14,13,4
16,161,164,0.5
16,72,34,0.5
16,129,137,4
16,78,135,0.5
16,19,21,0.5
16,130,138,4
16,172,12,0.5
16,14,10.5,4
16,74,70,4
16,135,139,4
16,97,105,4
16,87,68,4
16,167,162,0.5
16,136,163,0.5
16,140,156,4
16,87,62,4
16,168,178,4
16,27,11,4
16,12,15,4
16,29,13,0.5
16,134,151,4
16,34,31,4
16,106,103,0.5
16,77,107,0.5
16,54,26,0.5
16,128,26,0.5
16,58,30,0.5
16,131,152,4
16,173,153,0.5
16,124,128,4
16,37,36,4
16,29,14,4
16,127,127,0.5
16,41,43,4
16,60,32,0.5
16,129,138,0.5
16,142,151,0.5
16,178,174,4
16,8,17,0.5
16,116,126,4
16,44,36,4
16,16,29,4
16,125,142,4
16,169,146,4
16,96,94,0.5
16,117,124,0.5
16,146,142,4
16,83,67,4
16,115,112,4
16,42,44,4
16,173,171,4
16,178,174,4
16,123,152,4
16,54,45,0.5
16,79,68,0.5
16,16,2,0.5
16,127,136,0.5
16,32,123,0.5
16,87,7,0.5
16,170,4,0.5
16,39,167,0.5
16,122,140,4
16,7,8,4
16,118,21,4
16,124,114,0.5
16,85,52,0.5
16,121,139,4
16,153,150,4
16,79,74,4
16,95,171,0.5
16,46,35,0.5
16,178,177,4
16,24,33,0.5
16,131,42,0.5
16,41,44,0.5
16,17,20,4
16,63,173,0.5
16,134,131,4
16,6,0,0.5
16,36,21,4
16,145,137,4
16,16,54,0.5
16,39,35,0.5
16,11,126,0.5
16,101,39,0.5
16,125,38,0.5
16,86,90,0.5
16,166,174,0.5
16,86,105,0.5
16,135,132,4
16,155,177,0.5
16,1,179,4
16,159,171,0.5
16,6,22,4
16,165,178,0.5
16,154,154,0.5
16,139,144,0.5
16,153,41,0.5
16,122,144,4
16,82,83,0.5
16,103,115,0.5
16,15,21,0.5
16,53,168,0.5
16,13,16,4
16,119,139,4
16,145,147,0.5
16,143,156,0.5
16,98,99,4
16,70,105,0.5
16,166,172,4
16,14,12,0.5
16,64,62,0.5
16,20,26,4
16,168,44,0.5
16,122,134,4
16,179,3,4
16,72,79,0.5
16,50,10,0.5
16,164,145,0.5
16,57,11,0.5
16,164,167,0.5
16,157,157,0.5
16,20,54,0.5
16,87,170,0.5
16,68,46,0.5
16,41,39,4
16,47,31,4
16,62,47,4
16,70,41,4
16,138,145,4
16,172,162,0.5
16,75,44,0.5
16,12,20,4
16,65,108,0.5
16,93,101,4
16,163,154,0.5
16,70,16,0.5
16,139,132,0.5
16,87,101,0.5
16,120,107,0.5
16,160,167,4
16,56,163,0.5
16,25,24,0.5
16,150,166,0.5
16,18,22,4
16,97,88,4
16,28,40,0.5
16,171,134,0.5
16,152,157,4
16,84,137,0.5
16,64,70,4
16,137,131,4
16,144,111,0.5
16,138,130,4
16,19,26,4
16,53,47,4
16,12,8,4
16,46,175,0.5
16,42,24,0.5
16,73,56,4
16,59,48,0.5
16,93,81,0.5
16,32,18,4
16,112,127,4
16,5,118,0.5
16,105,116,0.5
16,12,22,4
16,54,37,4
16,100,64,0.5
16,98,89,4
16,123,118,4
16,37,32,0.5
16,23,35,4
16,101,125,4
16,85,100,0.5
16,98,97,4
16,65,133,0.5
16,40,44,0.5
16,84,157,0.5
16,85,83,4
16,12,12,4
16,175,3,0.5
16,50,53,4
16,105,96,4
16,41,61,0.5
16,153,152,4
16,108,138,0.5
16,144,151,4
16,179,171,4
16,18,13,0.5
16,26,28,4
16,153,154,0.5
16,116,110,4
16,86,76,4
16,120,131,4
16,45,117,0.5
16,111,120,0.5
16,90,88,0.5
16,88,74,0.5
16,82,53,0.5
16,170,162,4
16,133,141,0.5
16,78,67,4
16,152,145,4
16,154,148,0.5
16,109,121,0.5
16,179,11,0.5
16,114,125,0.5
16,124,123,4
16,150,49,4
16,23,26,4
16,179,141,0.5
16,180,164,4
16,58,113,0.5
16,73,53,4
16,37,47,0.5
16,14,19,4
16,175,4.75,4
16,180,7,4
16,26,24,0.5
16,145,146,4
16,5,17,4
16,159,155.75,4
16,87,161,0.5
16,144,136,4
16,168,163,4
16,180,60,0.5
16,135,128,0.5
16,25,24,0.5
16,95,42,0.5
16,47,43,4
16,106,127,0.5
16,15,142,0.5
16,2,19,4
16,26,29,0.5
16,92,20,0.5
16,71,62,4
16,79,48,0.5
16,138,141,0.5
16,128,137,4
16,137,139,0.5
16,138,146,0.5
16,37,30,4
16,79,46,0.5
16,100,84,4
16,18,23,4
16,122,132,4
16,117,122,4
16,152,143,4
16,59,35,0.5
16,146,133,0.5
16,91,87,0.5
16,138,147,0.5
16,69,59,0.5
16,55,55,0.5
16,61,47,0.5
16,131,109,4
16,19,29,4
16,139,145,4
16,114,125,4
16,79,64,4
16,67,170,0.5
16,123,127,4
16,26,16,4
16,125,126,4
16,49,38,4
16,46,40,4
16,36,29,4
16,87,23,0.5
16,117,125,4
16,38,172,0.5
16,57,50,4
16,171,175,4
16,127,135,0.5
16,157,177,4
16,162,174,0.5
16,19,15,0.5
16,28,17,4
16,88,88,4
16,111,109,4
16,122,114,4
16,176,3,4
16,124,150,0.5
16,82,99,0.5
16,109,97,0.5
16,163,175,4
16,155,154,0.5
16,19,28,4
16,64,60,4
16,126,125,4
16,29,36,0.5
16,122,138,4
16,135,147,4
16,136,136,0.5
16,153,146,4
16,55,47,4
16,128,126,0.5
17,78,75,0.5
17,4,80,4
17,24,164,0.5
17,123,81,0.5
17,22,74,4
17,82,54,4
17,31,14,0.5
17,135,144,0.5
17,165,133.25,0.5
17,49,134.25,4
17,15,103,0.5
17,5,77,0.5
17,103,130,4
17,39,118,4
17,163,127.5,0.5
17,6,76,4
17,14,52.25,0.5
17,36,136,0.5
17,101,70.5,4
17,153,149,4
17,32,85.5,0.5
17,81,79,4
17,100,54.25,4
17,53,172,4
17,37,130,4
17,73,74,0.5
17,172,60,0.5
17,25,142.25,4
17,96,106.5,4
17,16,126.75,4
17,105,73,4
17,74,121.75,0.5
17,4,141.25,0.5
17,33,97.5,0.5
17,40,100.75,4
17,137,95.5,0.5
17,26,73.25,0.5
17,120,135.5,4
17,177,45,0.5
17,11,142,4
17,171,114.25,0.5
17,161,53,0.5
17,73,100.5,4
17,153,99,0.5
17,85,145.5,4
17,108,33,4
17,22,152.75,0.5
17,151,141.5,4
17,175,80.25,0.5
17,149,60,4
17,135,22,0.5
17,42,95.5,4
17,20,69,4
17,69,174.25,0.5
17,79,90.5,4
17,126,98,4
17,15,91.5,0.5
17,70,151.5,4
17,19,101.25,0.5
17,9,134.75,0.5
17,39,98,0.5
17,141,5.5,4
17,161,109.25,0.5
17,138,179.75,4
17,113,17,0.5
17,179,75.5,0.5
17,49,71.5,0.5
17,159,125.25,4
17,173,41,4
17,27,91.75,4
17,49,55.75,0.5
17,50,39.5,4
17,177,102,4
17,179,57,0.5
17,117,86.25,0.5
17,73,122.75,4
17,116,138,4
17,150,111,0.5
17,163,49,0.5
17,33,132,0.5
17,148,146,0.5
17,177,95.75,4
17,17,72,0.5
17,155,114.75,0.5
17,93,51,0.5
17,6,155,0.5
17,2,114.25,4
17,16,114,4
17,70,38.75,4
17,25,139,0.5
17,173,99,0.5
17,58,57,0.5
17,39,150,4
17,147,91,0.5
17,73,68,4
17,21,158,0.5
17,25,112,4
17,143,125,4
17,115,3.5,0.5
17,112,109,4
17,1,70,4
17,1,78,4
17,52,76,0.5
17,177,87,0.5
17,110,115,4
17,136,109,4
17,163,73,4
17,66,127,0.5
17,50,116,0.5
17,1,120,0.5
17,136,116,4
17,83,109,0.5
17,154,83,0.5
17,86,50,0.5
17,69,36,4
17,170,43,4
17,64,126,0.5
17,50,85,0.5
17,165,168,4
17,5,57,0.5
17,74,56,4
17,58,143,0.5
17,151,48,4
17,168,130,4
17,166,130,0.5
17,101,44,0.5
17,100,51,0.5
17,173,61,4
17,36,69,4
17,118,55,0.5
17,90,1.75,0.5
17,120,59.25,0.5
17,95,54,0.5
17,80,161.75,0.5
17,78,160,4
17,97,161,0.5
17,36,101.5,0.5
17,109,102,4
17,59,43,0.5
17,17,90,0.5
17,72,165.5,0.5
17,69,97.5,0.5
17,74,162,0.5
17,32,109.5,4
17,36,16,0.5
17,36,51.25,0.5
17,139,86.25,4
17,161,58.5,0.5
17,135,69.75,4
17,119,40,0.5
17,161,130,0.5
17,132,144,4
17,1,41.5,0.5
17,69,33,0.5
17,64,150.25,0.5
17,178,76,0.5
17,137,20,0.5
17,154,74,0.5
17,111,136.75,4
17,80,93.25,0.5
17,42,84,0.5
17,25,141,4
17,122,122,0.5
17,64,1.25,4
17,16,156,4
17,177,173.25,4
17,58,151.25,0.5
17,92,161,0.5
17,5,40.25,0.5
17,26,114,4
17,36,88,0.5
17,168,129.5,0.5
17,153,113.75,4
17,38,35,4
17,115,63.5,4
17,87,64.5,0.5
17,20,150.5,4
17,161,12,4
17,34,155,0.5
17,43,93,0.5
17,78,145,4
17,114,60.75,0.5
17,163,134,4
17,137,28,4
17,60,64.75,0.5
17,177,106,4
17,55,96,4
17,38,80,0.5
17,102,96,0.5
17,155,94,4
17,72,68,0.5
17,146,63,0.5
17,146,48,4
17,37,79,4
17,178,33,4
17,69,118,0.5
17,120,112,4
17,10,92,4
17,144,114,0.5
17,134,4,4
17,45,101,4
17,33,104,0.5
17,160,168,0.5
17,45,112,0.5
17,54,98,4
17,18,53,4
17,19,34,4
17,82,84,4
17,107,47,0.5
17,145,110,0.5
17,131,141.5,4
17,70,53.75,0.5
17,52,111,4
17,58,31,0.5
17,80,33,4
17,49,139,0.5
17,60,119,4
17,72,110,0.5
17,176,135,4
17,55,158,0.5
17,64,90,0.5
17,74,46,4
17,174,111,4
17,25,122,0.5
17,88,138.75,4
17,97,55,4
17,72,113.75,0.5
17,137,116,4
17,74,72,4
17,52,150,4
17,31,153,0.5
17,155,71,4
17,112,92,4
17,101,163,0.5
17,149,12,0.5
17,69,161,0.5
17,28,139.5,0.5
17,99,66,0.5
17,32,153.5,4
17,6,106,4
17,164,88,4
17,2,101,4
17,68,119,4
17,64,178,0.5
17,155,117,4
17,172,91,4
17,130,40,0.5
17,120,55,4
17,174,145,4
17,91,41,4
17,61,141.25,0.5
17,12,61,4
17,119,126,0.5
17,129,42,0.5
17,54,50,0.5
17,86,127,4
17,1,61,0.5
17,164,41,0.5
17,71,124,0.5
17,58,95,4
17,79,124,0.5
17,48,120,4
17,128,45,0.5
17,109,81,4
17,164,115,4
17,174,178,4
17,47,105,0.5
17,68,120,0.5
17,62,158,0.5
17,10,95,4
17,26,116,4
17,9,126,0.5
17,128,51,4
17,114,37,4
17,2,75,4
17,159,63,4
17,160,117,4
17,141,69,4
17,88,75,0.5
17,15,41,4
17,92,146,0.5
17,166,23,4
17,76,152,4
17,72,129,4
17,119,108,0.5
17,150,115,0.5
17,153,21,0.5
17,3,97,0.5
17,2,56,0.5
17,50,125,4
17,67,20,0.5
17,146,159,0.5
17,108,123,4
17,44,162,0.5
17,100,24,4
17,59,118,4
17,7,69,4
17,25,140,4
17,60,135,0.5
17,8,118,0.5
17,169,82,4
17,79,70,0.5
17,120,150,0.5
17,145,131,4
17,45,89,0.5
17,84,94,4
17,26,50,4
17,101,167,4
17,22,84,4
17,76,79,0.5
17,68,63,0.5
17,33,88,0.5
17,112,77,4
17,140,107,0.5
17,178,164,0.5
17,145,161,0.5
17,7,94,0.5
17,4,90,4
17,96,4,4
17,39,149,4
17,163,159,0.5
17,112,44,0.5
17,104,176,0.5
17,155,108,4
17,10,103,4
17,98,122,4
17,59,109,0.5
17,22,142,4
17,56,76,0.5
17,9,95,4
17,45,63,0.5
17,141,137,4
17,169,108,0.5
17,177,136,0.5
17,64,146,4
17,160,52,4
17,89,62,0.5
17,122,60,4
17,2,117,0.5
17,99,35,4
17,42,121,0.5
17,78,123,0.5
17,55,111,0.5
17,85,115,4
17,75,177,0.5
17,179,159,0.5
17,16,138,4
17,107,139,4
17,95,27,4
17,174,99,4
17,48,29,4
17,96,17,4
17,154,40,4
17,10,100,4
17,80,59,0.5
17,17,124,0.5
17,35,125,4
17,172,76,4
17,35,137,0.5
17,53,119,4
17,42,134,0.5
17,18,89,4
17,177,137,4
17,167,74,0.5
17,35,64,4
17,122,62,4
17,149,53,0.5
17,147,67,4
17,134,58,4
17,6,136,4
17,26,78,4
17,22,109,4
17,143,110,0.5
17,35,56,4
17,57,115,0.5
17,62,44,4
17,151,125,0.5
17,39,179,0.5
17,159,154,4
17,99,147,4
17,151,57,4
17,131,2,0.5
17,128,113,4
17,60,129,4
17,38,86,4
17,89,61,0.5
17,7,155,0.5
17,61,43,0.5
17,91,99,0.5
17,171,91,4
17,84,147,4
17,168,124,0.5
17,50,37,0.5
17,109,101,0.5
17,106,162,0.5
17,132,31,0.5
17,81,136,0.5
17,89,62,4
17,136,82,4
17,144,89,4
17,135,153,0.5
17,155,60,4
17,9,147,4
17,26,123,4
17,43,147,0.5
17,65,77,4
17,100,28,4
17,109,53,0.5
17,137,122,4
17,37,73,4
17,37,126,4
17,46,87,0.5
17,20,157,4
17,163,27,4
17,54,20,4
17,43,113,0.5
17,102,160,4
17,94,9,4
17,67,169,4
17,41,79,4
17,8,151,4
17,79,102,0.5
17,166,3,4
17,40,133,0.5
17,160,76,4
17,153,167,4
17,142,170,0.5
17,104,66,0.5
17,132,112,0.5
17,28,55,0.5
17,147,53,0.5
17,12,63,4
17,145,101,0.5
17,111,68,4
17,67,174,4
17,46,160,4
17,67,5,0.5
17,36,75,0.5
17,137,86,4
17,41,130,4
17,142,110,4
17,163,34,4
17,158,40,0.5
17,112,37,0.5
17,129,125,4
17,101,72,0.5
17,101,7,0.5
17,36,162,4
17,16,118,4
17,30,71,4
17,44,100,4
17,157,178,4
17,28,160,4
17,89,139,4
17,40,1,0.5
17,34,153,0.5
17,89,2,0.5
17,154,171,4
17,67,160,0.5
17,12,123,0.5
17,30,12,0.5
17,24,3,0.5
17,74,20,0.5
17,48,92,0.5
17,24,71,0.5
17,11,62,4
17,167,94,0.5
17,13,106,4
17,76,112,0.5
17,111,178,4
17,81,97,4
17,97,103,4
17,129,100,0.5
17,140,77,4
17,1,1,0.5
17,65,141,4
17,151,82,0.5
17,166,173,0.5
17,54,131,4
17,46,23,4
17,95,168,4
17,174,54,0.5
17,177,23,0.5
17,2,56,0.5
17,104,8,4
17,115,68,0.5
17,168,14,4
17,110,138,4
17,136,120,0.5
17,114,54,4
17,26,65,0.5
17,107,129,4
17,16,66,0.5
17,34,80,0.5
17,20,126,4
17,132,113,4
17,20,105,0.5
17,18,54,0.5
17,53,129,0.5
17,44,57,0.5
17,1,56,0.5
17,72,117,4
17,21,116,0.5
17,71,98,0.5
17,34,121,0.5
17,11,54,0.5
17,135,39,0.5
17,2,130,0.5
17,56,52,0.5
17,95,36,0.5
17,164,140,0.5
17,67,157,4
17,61,103,4
17,176,21,4
17,170,99,4
17,80,115,0.5
17,84,43,4
17,32,75,4
17,155,27,4
17,21,152,0.5
17,76,146,0.5
17,159,158,4
17,105,179,0.5
17,38,64,4
17,32,142,4
17,108,175,4
17,42,123,0.5
17,49,134,0.5
17,54,21,4
17,119,9,4
17,100,123,4
17,97,25,0.5
17,144,114,0.5
17,36,13,4
17,15,149,0.5
17,116,139,0.5
17,81,82,4
17,28,130,0.5
17,75,142,4
17,110,36,0.5
17,119,86,0.5
17,17,100,4
17,67,115,4
17,66,123,4
17,14,45,4
17,161,162,4
17,72,48,4
17,129,67,4
17,78,67,0.5
17,19,11,4
17,130,14,0.5
17,172,48,4
17,14,104,0.5
17,74,164,4
17,135,139,4
17,97,175,0.5
17,87,90,4
17,167,42,4
17,136,91,0.5
17,140,112,4
17,87,32,0.5
17,168,38,4
17,27,81,0.5
17,12,83,4
17,29,45,4
17,134,41,4
17,34,125,4
17,106,63,0.5
17,77,117,0.5
17,54,54,0.5
17,128,36,0.5
17,58,104,0.5
17,131,98,0.5
17,173,69,0.5
17,124,22,0.5
17,37,58,0.5
17,29,178,0.5
17,127,27,4
17,41,143,4
17,60,132,4
17,129,66,0.5
17,142,101,4
17,178,108,4
17,8,95,0.5
17,116,64,0.5
17,44,74,4
17,16,147,4
17,125,56,4
17,169,106,4
17,96,154,4
17,117,174,0.5
17,146,72,0.5
17,83,3,4
17,115,28,0.5
17,42,88,0.5
17,173,119,0.5
17,178,142,0.5
17,123,26,4
17,54,175,0.5
17,79,18,0.5
17,16,48,4
17,127,144,0.5
17,32,97,4
17,87,21,4
17,170,36,0.5
17,39,171,0.5
17,122,106,0.5
17,7,118,4
17,118,39,4
17,124,154,4
17,85,116,4
17,121,73,0.5
17,153,70,4
17,79,130,0.5
17,95,155,0.5
17,46,111,0.5
17,178,157,0.5
17,24,51,0.5
17,131,68,0.5
17,41,54,4
17,17,62,4
17,63,11,0.5
17,134,91,0.5
17,6,134,0.5
17,36,159,4
17,145,159,0.5
17,16,72,0.5
17,39,133,4
17,11,76,4
17,101,15,4
17,125,10,0.5
17,86,110,4
17,166,110,4
17,86,129,4
17,135,104,0.5
17,155,39,4
17,1,115,4
17,159,119,4
17,6,30,0.5
17,165,166,0.5
17,154,10,0.5
17,139,80,0.5
17,153,51,4
17,122,102,0.5
17,82,93,0.5
17,103,35,4
17,15,7,0.5
17,53,6,0.5
17,13,2,0.5
17,119,43,0.5
17,145,117,4
17,143,60,4
17,98,113,4
17,70,129,0.5
17,166,44,4
17,14,36,4
17,64,52,0.5
17,20,64,4
17,168,48,0.5
17,122,76,4
17,179,131,0.5
17,72,77,0.5
17,50,74,0.5
17,164,153,0.5
17,57,47,0.5
17,164,125,4
17,157,119,0.5
17,20,178,0.5
17,87,136,0.5
17,68,114,0.5
17,41,83,0.5
17,47,81,0.5
17,62,137,4
17,70,107,4
17,138,71,4
17,172,24,0.5
17,75,144,4
17,12,90,4
17,65,134,0.5
17,93,63,0.5
17,163,110,0.5
17,70,56,0.5
17,139,146,4
17,87,99,0.5
17,120,63,0.5
17,160,161,4
17,56,41,4
17,25,142,0.5
17,150,36,0.5
17,18,156,4
17,97,166,0.5
17,28,116,4
17,171,112,0.5
17,152,101,0.5
17,84,163,4
17,64,158,4
17,137,41,4
17,144,171,4
17,138,2,0.5
17,19,86,4
17,53,155,4
17,12,90,0.5
17,46,117,4
17,42,120,0.5
17,73,168,0.5
17,59,46,4
17,93,85,0.5
17,32,120,4
17,112,135,4
17,5,12,4
17,105,110,4
17,12,112,0.5
17,54,131,0.5
17,100,178,4
17,98,49,4
17,123,106,4
17,37,84,4
17,23,61,4
17,101,53,4
17,85,70,4
17,98,119,0.5
17,65,117,4
17,40,84,0.5
17,84,81,0.5
17,85,81,0.5
17,12,128,4
17,175,115,0.5
17,50,111,0.5
17,105,110,0.5
17,41,69,4
17,153,10,0.5
17,108,150,0.5
17,144,19,0.5
17,179,89,4
17,18,161,0.5
17,26,134,4
17,153,158,4
17,116,6,0.5
17,86,6,0.5
17,120,91,0.5
17,45,79,0.5
17,111,76,0.5
17,90,106,4
17,88,130,4
17,82,175,0.5
17,170,174,4
17,133,51,0.5
17,78,41,4
17,152,81,0.5
17,154,72,0.5
17,109,151,4
17,179,65,0.5
17,114,39,4
17,124,123,4
17,150,177,4
17,23,56,0.5
17,179,89,4
17,180,132,4
17,58,159,0.5
17,73,63,0.5
17,37,165,0.5
17,14,103,0.5
17,175,57,0.5
17,180,123,4
17,26,146,4
17,145,40,4
17,5,171,4
17,159,107,4
17,87,167,4
17,144,162,4
17,168,91,0.5
17,180,32,4
17,135,6,0.5
17,25,86,4
17,95,32,4
17,47,165,4
17,106,71,4
17,15,134,4
17,2,141,0.5
17,26,103,4
17,92,132,0.5
17,71,118,0.5
17,79,78,0.5
17,138,95,0.5
17,128,53,4
17,137,11,4
17,138,112,4
17,37,70,0.5
17,79,80,4
17,100,18,4
17,18,169,4
17,122,4,0.5
17,117,28,4
17,152,131,4
17,59,33,0.5
17,146,115,0.5
17,91,87,0.5
17,138,1,0.5
17,69,51,4
17,55,37,0.5
17,61,3,0.5
17,131,9,4
17,19,41,4
17,139,151,0.5
17,114,91,4
17,79,24,4
17,67,8,0.5
17,123,169,4
17,26,24,0.5
17,125,50,4
17,49,2,0.5
17,46,172,4
17,36,129,4
17,87,141,4
17,117,79,0.5
17,38,96,0.5
17,57,110,0.5
17,171,105,4
17,127,169,0.5
17,157,53,4
17,162,34,0.5
18,159,145,0.5
18,135,45,0.5
18,45,116,0.5
18,140,88,0.5
18,129,122,0.5
18,51,62,0.5
18,98,61,0.5
18,2,164,4
18,103,52,0.5
18,120,130,4
18,61,43,4
18,27,85,0.5
18,170,152,4
18,135,51,0.5
18,156,121,0.5
18,80,62,4
18,16,123,4
18,147,51,0.5
18,20,58,4
18,82,81,4
18,163,136,4
18,3,40,4
18,28,131,4
18,168,156,0.5
18,109,84,0.5
18,124,120,0.5
18,89,76,4
18,84,79,0.5
18,67,113,4
18,134,116,0.5
18,21,69,0.5
18,126,138,4
18,94,74,4
18,29,175,4
18,81,89,0.5
18,71,76,4
18,83,109,0.5
18,128,127,4
18,115,85,4
18,106,89,4
18,139,11,4
18,55,120,4
18,45,97,4
18,40,89,0.5
18,91,93,0.5
18,167,12,4
18,46,55,4
18,162,37,0.5
18,70,76,0.5
18,130,126,0.5
18,15,86,0.5
18,87,93,0.5
18,164,11,4
18,178,51,0.5
18,8,16,4
18,176,83,0.5
18,135,61,4
18,51,65,4
18,114,59,4
18,71,42,0.5
18,151,42,4
18,66,60,4
18,3,70,0.5
18,179,19,4
18,127,66,0.5
18,47,62,0.5
18,63,75,0.5
18,23,146,4
18,6,51,0.5
18,89,34,0.5
18,50,132,4
18,140,23,0.5
18,29,32,4
18,92,93,0.5
18,135,83,4
18,28,31,0.5
18,114,62,4
18,57,55,0.5
18,170,93,0.5
18,13,25,4
18,130,103,0.5
18,8,52,0.5
18,138,154,4
18,135,67,4
18,159,52,4
18,71,54,0.5
18,155,138,4
18,69,66,4
18,34,33,4
18,45,99,0.5
18,102,61,0.5
18,34,44,4
18,88,98,4
18,135,144,0.5
18,86,74,0.5
18,37,33,4
18,4,179,4
18,120,144,0.5
18,8,35,0.5
18,169,57,0.5
18,51,121,0.5
18,110,112,4
18,89,74,4
18,18,58,0.5
18,120,123,4
18,31,49,0.5
18,72,77,0.5
18,83,69,0.5
18,112,65,4
18,61,123,0.5
18,106,116,0.5
18,100,82,4
18,120,52,4
18,120,48,0.5
18,62,62,0.5
18,163,56,0.5
18,101,89,4
18,82,77,4
18,87,87,4
18,19,38,4
18,44,52,4
18,79,77,4
18,39,69,4
18,10,36,0.5
18,47,66,4
18,134,89,0.5
18,135,115,0.5
18,26,37,4
18,107,116,4
18,169,161,4
18,53,66,4
18,112,102,0.5
18,93,89,4
18,117,114,4
18,20,86,0.5
18,165,74,0.5
18,115,70,4
18,166,129,0.5
18,100,81,4
18,128,128,4
18,58,128,0.5
18,94,100,4
18,125,93,0.5
18,131,115,4
18,169,163,4
18,27,33,4
18,153,91,0.5
18,120,127,0.5
18,112,103,0.5
18,64,75,4
18,60,125,4
18,113,114,4
18,28,72,0.5
18,125,129,4
18,157,59,4
18,179,145,0.5
18,129,139,4
18,63,58,4
18,169,84,0.5
18,149,132,4
18,16,58,0.5
18,151,151,0.5
18,75,102,0.5
18,18,36,4
18,19,39,0.5
18,175,45,0.5
18,131,96,4
18,78,76,0.5
18,37,63,0.5
18,29,115,0.5
18,43,59,0.5
18,168,64,0.5
18,69,53,0.5
18,153,125,0.5
18,179,85,0.5
18,121,110,0.5
18,86,127,0.5
18,100,138,0.5
18,16,42,0.5
18,89,94,0.5
18,31,55,4
18,101,117,4
18,95,50,0.5
18,37,143,4
18,51,47,0.5
18,33,80,0.5
18,24,94,0.5
18,150,104,0.5
18,172,3,4
18,155,4,0.5
18,130,90,0.5
18,147,110,0.5
18,175,160,0.5
18,142,131,4
18,28,107,0.5
18,63,41,4
18,135,35,4
18,22,134,0.5
18,13,60,4
18,166,40,0.5
18,84,94,0.5
18,48,57,4
18,100,19,0.5
18,86,63,4
18,21,128,0.5
18,113,120,0.5
18,163,128,0.5
18,18,30,4
18,25,54,4
18,71,50,4
18,58,63,4
18,158,26,0.5
18,140,154,4
18,140,113,0.5
18,50,43,4
18,100,90,0.5
18,132,115,4
18,129,73,0.5
18,109,112,4
18,145,89,0.5
18,71,82,0.5
18,134,119,4
18,30,106,0.5
18,98,118,0.5
18,117,80,0.5
18,155,52,0.5
18,42,44,0.5
18,15,65,0.5
18,139,57,0.5
18,89,100,4
18,115,118,0.5
18,130,101,4
18,176,164,4
18,172,56,4
18,50,123,0.5
18,1,169,0.5
18,66,110,4
18,142,22,0.5
18,32,56,4
18,76,155,0.5
18,43,36,0.5
18,65,79,4
18,136,69,4
18,134,142,0.5
18,81,56,0.5
18,122,131,4
18,86,78,4
18,173,10,4
18,96,101,0.5
18,176,165,4
18,174,48,0.5
18,135,38,4
18,94,36,0.5
18,1,177,4
18,98,54,0.5
18,82,89,4
18,167,72,0.5
18,21,91,4
18,71,63,4
18,111,103,4
18,141,70,0.5
18,20,45,4
18,88,71,0.5
18,37,133,0.5
18,148,53,0.5
18,4,174,4
18,41,55,0.5
18,160,173,4
18,37,25,4
18,31,30,4
18,98,105,4
18,50,136,0.5
18,67,47,0.5
18,100,142,4
18,29,53,0.5
18,49,56,0.5
18,139,168,0.5
18,164,57,0.5
18,34,115,0.5
18,128,39,0.5
18,41,52,4
18,99,111,4
18,23,94,0.5
18,20,77,0.5
18,29,121,4
18,178,15,4
18,177,33,0.5
18,166,111,0.5
18,17,28,4
18,167,45,4
18,19,65,0.5
18,10,31,0.5
18,98,118,4
18,177,121,0.5
18,100,118,4
18,149,137,0.5
18,7,101,0.5
18,29,69,0.5
18,82,146,0.5
18,121,102,4
18,90,92,4
18,17,82,4
18,31,141,0.5
18,85,99,4
18,115,102,4
18,97,106,0.5
18,69,57,4
18,176,5,4
18,122,133,4
18,179,151,4
18,130,114,4
18,13,175,4
18,68,123,4
18,162,139,4
18,39,30,4
18,63,67,4
18,161,24,4
18,65,74,4
18,6,20,4
18,102,123,0.5
18,103,126,4
18,176,37,4
18,173,115,0.5
18,94,114,4
18,79,88,4
18,174,132,4
18,154,131,0.5
18,64,132,0.5
18,16,1,0.5
18,169,126,0.5
18,85,81,4
18,110,126,4
18,167,76,0.5
18,58,50,4
18,117,86,4
18,69,53,4
18,15,0,4
18,150,111,4
18,97,113,0.5
18,167,126,0.5
18,169,148,4
18,72,51,4
18,130,122,4
18,9,5,4
18,29,50,4
18,131,131,4
18,58,126,4
18,152,40,0.5
18,1,30,0.5
18,109,111,0.5
18,144,21,0.5
18,95,94,0.5
18,50,71,4
18,86,68,4
18,99,125,0.5
18,18,62,4
18,12,51,4
18,69,116,0.5
18,128,52,0.5
18,115,121,4
18,30,72,4
18,17,179,0.5
18,64,75,4
18,170,36,4
18,153,113,0.5
18,168,113,0.5
18,38,102,0.5
18,106,99,0.5
18,141,150,4
18,17,87,0.5
18,126,114,0.5
18,24,64,4
18,81,87,0.5
18,91,88,4
18,48,52,4
18,118,121,0.5
18,138,94,4
18,74,58,4
18,80,81,0.5
18,164,129,0.5
18,20,70,4
18,65,53,4
18,22,77,4
18,154,102,0.5
18,149,179,0.5
18,91,63,0.5
18,10,53,0.5
18,154,52,0.5
18,119,145,4
18,101,124,0.5
18,10,108,0.5
18,14,122,0.5
18,31,54,0.5
18,51,48,4
18,103,105,4
18,144,43,4
18,19,43,4
18,77,93,0.5
18,40,61,0.5
18,60,52,4
18,163,112,4
18,105,109,4
18,21,32,0.5
18,56,130,0.5
18,98,136,0.5
18,11,3,4
18,6,48,0.5
18,125,120,4
18,46,55,0.5
18,22,44,0.5
18,39,62,0.5
18,83,60,0.5
18,127,51,0.5
18,138,116,0.5
18,93,89,4
18,18,27,0.5
18,23,77,4
18,69,75,0.5
18,124,116,4
18,135,98,0.5
18,65,64,4
18,137,108,4
18,4,8,4
18,16,14,0.5
18,153,132,4
18,62,24,4
18,106,59,0.5
18,26,51,0.5
18,90,116,0.5
18,169,27,0.5
18,70,51,4
18,46,70,4
18,38,17,0.5
18,8,13,4
18,45,45,0.5
18,122,97,0.5
18,124,145,0.5
18,35,77,4
18,86,115,0.5
18,110,40,0.5
18,55,33,4
18,38,57,0.5
18,87,108,0.5
18,101,116,4
18,39,132,0.5
18,63,38,0.5
18,50,53,4
18,43,165,0.5
18,162,178,4
18,127,49,4
18,40,53,0.5
18,110,121,4
18,34,10,0.5
18,41,51,4
18,54,107,0.5
18,13,34,4
18,71,124,4
18,91,79,0.5
18,54,71,4
18,43,54,0.5
18,113,152,0.5
18,47,77,4
18,154,137,4
18,143,63,0.5
18,93,137,4
18,145,90,4
18,180,80,0.5
18,13,75,4
18,153,164,0.5
18,135,114,4
18,174,90,0.5
18,76,130,4
18,75,102,0.5
18,2,59,4
18,131,119,4
18,132,131,4
18,38,144,0.5
18,25,60,4
18,140,109,0.5
18,125,37,0.5
18,37,70,0.5
18,101,139,0.5
18,13,54,4
18,177,41,4
18,124,129,4
18,116,107,4
18,15,35,0.5
18,117,111,4
18,135,137,0.5
18,156,109,0.5
18,73,84,4
18,150,128,0.5
18,17,100,0.5
18,111,129,4
18,124,102,4
18,134,138,0.5
18,132,119,0.5
18,81,130,0.5
18,38,81,4
18,19,128,4
18,87,142,0.5
18,90,108,0.5
18,134,79,0.5
18,72,41,4
18,176,83,4
18,178,28,4
18,47,89,0.5
18,155,124,0.5
18,21,149,0.5
18,94,82,0.5
18,94,78,0.5
18,55,16,0.5
18,114,58,4
18,151,47,4
18,84,104,4
18,88,99,4
18,49,57,4
18,122,68,4
18,130,130,4
18,51,49,4
18,130,62,0.5
18,110,158,0.5
18,168,93,0.5
18,168,47,4
18,86,104,0.5
18,29,115,4
18,9,53,0.5
18,44,58,0.5
18,75,70,4
18,93,99,4
18,69,32,0.5
18,35,58,4
18,101,39,0.5
18,17,115,0.5
18,5,22,4
18,129,53,0.5
18,74,68,4
18,60,40,4
18,130,159,4
18,33,55,4
18,158,107,0.5
18,174,125,0.5
18,131,125,0.5
18,116,90,0.5
18,80,41,4
18,83,92,0.5
18,178,64,4
18,126,122,0.5
18,116,130,0.5
18,60,42,4
18,46,71,0.5
18,49,132,4
18,17,82,4
18,39,129,0.5
18,75,119,0.5
18,93,90,0.5
18,127,123,4
18,71,64,0.5
18,158,98,0.5
18,111,63,4
18,56,81,4
18,169,120,0.5
18,97,12,0.5
18,42,136,0.5
18,117,67,0.5
18,20,119,4
18,104,146,4
18,82,64,0.5
18,88,112,4
18,67,43,4
18,136,106,0.5
18,134,41,0.5
18,127,52,0.5
18,8,93,0.5
18,140,93,0.5
18,142,39,4
18,34,33,4
18,142,59,0.5
18,140,79,0.5
18,151,100,0.5
18,161,72,0.5
18,67,60,0.5
18,70,75,0.5
18,16,127,4
18,49,67,0.5
18,159,138,4
18,28,85,0.5
18,141,106,4
18,58,61,0.5
18,9,85,4
18,67,91,0.5
18,81,140,4
18,4,29,4
18,165,10,4
18,175,1,0.5
18,126,155,0.5
18,132,68,4
18,168,78,0.5
18,147,38,0.5
18,122,127,0.5
18,110,35,0.5
18,61,93,4
18,85,103,4
18,120,115,0.5
18,23,12,4
18,164,32,0.5
18,67,83,4
18,13,143,4
18,24,143,0.5
18,161,30,4
18,56,130,0.5
18,143,113,0.5
18,22,111,4
18,150,71,0.5
18,4,144,0.5
18,60,45,0.5
18,125,138,4
18,122,140,0.5
18,78,89,0.5
18,40,41,4
18,37,30,4
18,170,2,4
18,84,66,4
18,20,28,0.5
18,85,59,0.5
18,117,72,4
18,78,102,0.5
18,99,109,4
18,130,151,4
18,168,115,4
18,23,66,0.5
18,163,165,4
18,143,128,4
18,7,22,4
18,132,73,4
18,115,113,4
18,118,117,0.5
18,27,57,4
18,82,65,0.5
18,172,20,0.5
18,68,78,4
18,83,151,4
18,164,80,0.5
18,12,64,0.5
18,107,119,4
18,166,52,0.5
18,80,56,4
18,148,148,4
18,43,53,0.5
18,33,36,0.5
18,29,30,4
18,123,61,0.5
18,55,93,0.5
18,17,50,4
18,3,177,0.5
18,54,58,0.5
18,147,122,4
18,128,140,4
18,100,91,4
18,163,136,0.5
18,29,50,0.5
18,91,42,0.5
18,157,76,0.5
18,161,58,4
18,26,102,0.5
18,50,76,4
18,1,84,0.5
18,34,62,0.5
18,24,177,0.5
18,147,48,0.5
18,1,50,0.5
18,125,102,0.5
18,12,81,4
18,36,32,4
18,179,125,4
18,127,106,4
18,87,113,0.5
18,140,116,4
18,127,127,4
18,82,118,4
18,96,65,4
18,21,10,0.5
18,12,27,4
18,63,68,4
18,134,91,0.5
18,89,100,4
18,140,176,0.5
18,67,69,4
18,164,45,0.5
18,47,120,0.5
18,147,139,0.5
18,95,45,4
18,88,118,4
18,159,166,4
18,14,95,4
18,164,155,0.5
18,7,162,0.5
18,1,144,4
18,21,32,0.5
18,43,128,4
18,163,18,4
18,125,133,0.5
18,127,133,4
18,33,104,4
18,100,145,0.5
18,14,53,4
18,161,46,4
18,175,17,4
18,85,89,4
18,89,54,0.5
18,41,72,0.5
18,94,137,0.5
18,104,159,0.5
18,147,101,4
18,15,119,0.5
18,116,82,4
18,62,24,4
18,105,62,4
18,66,73,4
18,89,136,0.5
18,168,49,4
18,89,130,4
18,134,128,0.5
18,53,131,4
18,1,126,0.5
18,53,41,0.5
18,175,51,4
18,180,72,4
18,41,88,0.5
18,97,56,4
18,40,109,4
18,7,55,4
18,149,25,0.5
18,53,135,4
18,82,39,4
18,50,70,4
18,172,59,4
18,3,165,4
18,88,60,0.5
18,165,38,0.5
18,130,46,0.5
18,91,31,0.5
18,171,149,0.5
18,156,128,4
18,117,108,0.5
18,110,110,4
18,17,132,0.5
18,43,68,4
18,144,150,4
18,112,117,4
18,31,56,4
18,179,3,4
18,43,47,4
18,177,31,4
18,48,37,4
18,102,106,4
18,87,42,0.5
18,164,51,4
18,176,8,4
18,157,42,0.5
18,8,18,4
18,89,111,4
18,116,58,0.5
18,13,32,4
18,25,20,4
18,70,118,0.5
18,13,16,0.5
18,28,34,0.5
18,27,34,4
18,42,89,0.5
18,56,128,0.5
18,138,128,4
18,82,94,4
18,88,91,4
18,88,95,4
18,134,133,4
18,133,107,0.5
18,71,118,0.5
18,158,113,0.5
18,44,106,0.5
18,81,95,4
18,171,17,4
18,119,40,0.5
18,151,148,4
18,4,64,0.5
18,17,41,4
18,180,68,0.5
18,132,101,0.5
18,162,36,4
18,85,67,0.5
18,55,53,0.5
18,1,120,0.5
18,122,109,4
18,138,118,0.5
18,159,30,0.5
18,149,52,4
18,126,126,4
18,179,22,4
18,4,116,0.5
18,12,33,0.5
18,71,68,0.5
18,101,89,4
18,158,85,4
18,123,56,4
18,139,111,4
18,80,81,4
18,135,86,4
18,177,121,0.5
18,6,43,0.5
18,124,69,4
18,48,53,4
18,71,89,4
18,93,19,0.5
18,36,141,0.5
18,51,64,4
18,32,46,4
18,112,120,0.5
18,148,86,4
18,161,37,4
18,27,141,0.5
18,99,131,0.5
19,64,84,0.5
19,129,154,4
19,83,25,4
19,83,173,0.5
19,158,178,4
19,112,42,0.5
19,23,141,0.5
19,95,122,0.5
19,121,28,0.5
19,14,30,4
19,75,50,4
19,12,22,4
19,90,4,0.5
19,180,175,0.5
19,75,25,4
19,57,71,0.5
19,138,5,0.5
19,58,7,0.5
19,174,155,0.5
19,102,121,4
19,81,53,0.5
19,91,88,0.5
19,100,128,0.5
19,29,24,4
19,180,169,4
19,104,105,4
19,63,177,0.5
19,76,20,0.5
19,174,20,4
19,19,16,4
19,76,134,0.5
19,172,10,4
19,67,173,0.5
19,54,49,4
19,177,5,0.5
19,56,46,4
19,97,75,4
19,168,147,4
19,111,128,4
19,176,157,0.5
19,27,56,4
19,56,97,0.5
19,9,12,4
19,162,165,4
19,15,26,0.5
19,57,17,0.5
19,23,31,4
19,122,145,0.5
19,9,9,4
19,70,78,4
19,50,44,4
19,174,155,0.5
19,143,128,4
19,8,93,0.5
19,63,77,4
19,171,68,0.5
19,82,65,4
19,145,128,4
19,159,155,0.5
19,176,155,4
19,145,149,4
19,37,105,0.5
19,47,46,4
19,55,108,0.5
19,3,9,0.5
19,16,28,4
19,176,153,4
19,158,88,0.5
19,158,15,0.5
19,77,59,4
19,87,103,4
19,140,146,4
19,105,174,0.5
19,4,21,4
19,115,109,0.5
19,20,155,0.5
19,29,102,0.5
19,130,159,4
19,96,170,0.5
19,91,91,4
19,12,20,0.5
19,40,24,0.5
19,90,143,0.5
19,112,12,0.5
19,38,26,0.5
19,135,143,4
19,157,98,0.5
19,9,114,0.5
19,95,16,0.5
19,86,140,0.5
19,134,119,4
19,111,137,0.5
19,141,146,4
19,138,134,4
19,105,128,4
19,53,46,4
19,80,23,0.5
19,176,169,0.5
19,100,1,0.5
19,105,49,0.5
19,137,81,0.5
19,18,100,0.5
19,24,20,4
19,60,38,4
19,120,137,4
19,82,39,4
19,93,117,4
19,14,68,0.5
19,86,120,0.5
19,147,105,0.5
19,176,173,0.5
19,2,154,0.5
19,127,18,0.5
19,149,137,0.5
19,52,62,4
19,116,35,4
19,58,24,0.5
19,142,149,4
19,110,156,0.5
19,175,164,4
19,41,18,0.5
19,142,161,4
19,19,30,4
19,80,24,0.5
19,107,116,4
19,59,24,0.5
19,48,19,0.5
19,66,150,0.5
19,37,137,0.5
19,110,111,0.5
19,110,103,0.5
19,47,29,0.5
19,74,143,0.5
19,176,0,4
19,127,112,4
19,3,21,0.5
19,49,70,4
19,179,153,4
19,11,0,0.5
19,43,155,0.5
19,58,72,4
19,150,150,0.5
19,67,89,0.5
19,170,168,0.5
19,27,42,0.5
19,70,92,4
19,8,33,4
19,163,2,0.5
19,6,2,4
19,57,178,0.5
19,23,44,0.5
19,150,170,0.5
19,3,44,0.5
19,34,142,0.5
19,54,141,0.5
19,30,38,4
19,89,21,0.5
19,171,168,0.5
19,30,26,4
19,106,115,4
19,130,22,0.5
19,132,37,0.5
19,15,21,4
19,27,28,4
19,52,39,0.5
19,179,168,4
19,180,175,4
19,24,163,4
19,6,149,0.5
19,44,17,4
19,97,101,0.5
19,87,63,4
19,28,37,4
19,158,130,4
19,172,48,0.5
19,25,26,0.5
19,61,104,0.5
19,46,50,4
19,79,43,0.5
19,144,141,4
19,24,41,0.5
19,24,156,0.5
19,162,144,0.5
19,53,56,4
19,39,41,4
19,105,129,4
19,109,90,0.5
19,110,130,0.5
19,29,31,4
19,144,146,4
19,119,127,4
19,151,153,0.5
19,174,179,0.5
19,26,133,0.5
19,29,41,4
19,37,128,0.5
19,81,88,0.5
19,109,95,0.5
19,100,47,0.5
19,95,66,4
19,56,75,4
19,34,57,4
19,116,118,4
19,150,166,0.5
19,90,159,0.5
19,82,106,4
19,26,25,0.5
19,63,47,4
19,123,106,4
19,168,152,4
19,67,44,4
19,31,120,0.5
19,167,169,0.5
19,119,168,0.5
19,125,143,0.5
19,133,46,0.5
19,47,56,4
19,78,81,4
19,7,22,4
19,106,38,0.5
19,117,115,0.5
19,166,172,4
19,123,167,0.5
19,2,171,4
19,62,37,0.5
19,109,154,0.5
19,51,36,0.5
19,51,66,4
19,34,45,4
19,104,134,4
19,99,117,0.5
19,85,90,4
19,85,89,4
19,74,125,0.5
19,124,47,0.5
19,11,12,0.5
19,99,63,4
19,25,37,4
19,179,77,0.5
19,4,149,4
19,178,173,4
19,17,35,4
19,54,10,0.5
19,157,139,4
19,102,106,4
19,134,110,0.5
19,6,20,4
19,145,155,0.5
19,12,35,4
19,150,102,0.5
19,73,59,4
19,177,156,4
19,11,14,0.5
19,139,174,0.5
19,146,100,0.5
19,172,154,0.5
19,79,88,0.5
19,48,39,4
19,151,155,4
19,146,14,0.5
19,52,17,0.5
19,108,149,0.5
19,99,113,0.5
19,138,16,0.5
19,137,157,4
19,68,102,0.5
19,5,43,0.5
19,151,41,0.5
19,100,98,4
19,29,23,4
19,26,134,0.5
19,177,0,4
19,143,19,0.5
19,179,6,4
19,98,175,0.5
19,79,76,4
19,163,151,0.5
19,13,16,0.5
19,129,158,4
19,87,6,0.5
19,129,156,0.5
19,176,25,0.5
19,69,71,4
19,35,58,4
19,48,32,0.5
19,33,22,4
19,45,93,0.5
19,51,58,4
19,14,70,0.5
19,176,172,4
19,137,141,4
19,41,177,0.5
19,27,15,0.5
19,42,10,0.5
19,168,160,0.5
19,102,75,4
19,106,108,4
19,27,65,0.5
19,178,159,4
19,157,25,0.5
19,113,85,0.5
19,144,115,0.5
19,62,92,0.5
19,103,95,0.5
19,103,37,0.5
19,62,14,0.5
19,86,115,0.5
19,105,97,4
19,172,155,0.5
19,84,9,0.5
19,169,145,4
19,129,122,4
19,90,162,0.5
19,39,34,4
19,75,137,0.5
19,18,36,0.5
19,93,39,0.5
19,82,7,0.5
19,142,115,0.5
19,24,60,0.5
19,3,137,0.5
19,131,135,0.5
19,75,113,0.5
19,49,58,4
19,36,48,0.5
19,24,24,4
19,5,18,0.5
19,159,137,4
19,6,42,0.5
19,127,150,0.5
19,63,49,4
19,72,66,4
19,68,46,0.5
19,12,27,4
19,56,128,0.5
19,107,98,4
19,98,101,4
19,47,47,0.5
19,10,16,4
19,63,66,4
19,60,58,4
19,64,54,4
19,44,152,0.5
19,53,29,4
19,58,18,0.5
19,15,27,4
19,67,20,0.5
19,120,23,0.5
19,86,72,4
19,134,26,0.5
19,156,148,0.5
19,140,146,4
19,41,36,4
19,53,24,4
19,10,37,4
19,137,172,0.5
19,19,29,4
19,169,135,4
19,22,35,4
19,68,29,0.5
19,154,176,0.5
19,4,167,0.5
19,134,153,4
19,3,17,4
19,175,148,4
19,101,29,0.5
19,165,145,4
19,110,132,4
19,13,24,4
19,1,120,0.5
19,126,125,4
19,29,45,4
19,162,117,4
19,147,134,4
19,33,1,0.5
19,124,164,0.5
19,135,137,4
19,103,95,0.5
19,20,175,0.5
19,8,18,4
19,7,23,4
19,174,179,4
19,23,2,0.5
19,77,67,4
19,170,159,4
19,45,154,0.5
19,149,171,4
19,63,82,0.5
19,93,122,4
19,4,1,4
19,88,109,4
19,29,83,4
19,109,111,4
19,48,36,0.5
19,8,35,4
19,144,74,0.5
19,109,97,0.5
19,153,134,4
19,65,26,0.5
19,13,8,4
19,166,170,4
19,120,113,4
19,77,79,4
19,115,86,0.5
19,170,90,0.5
19,99,87,4
19,51,33,4
19,124,23,0.5
19,79,74,4
19,77,157,0.5
19,111,129,4
19,51,66,0.5
19,15,33,4
19,13,13,4
19,12,90,0.5
19,47,177,0.5
19,162,174,0.5
19,97,70,4
19,148,138,0.5
19,68,79,0.5
19,87,96,0.5
19,164,139,4
19,7,77,0.5
19,87,123,4
19,178,2,0.5
19,4,132,0.5
19,84,32,0.5
19,13,32,4
19,20,16,4
19,125,14,0.5
19,102,98,0.5
19,129,110,4
19,42,6,0.5
19,79,92,4
19,28,38,4
19,127,132,0.5
19,153,150,4
19,48,56,4
19,105,105,0.5
19,152,156,4
19,111,132,0.5
19,159,158,4
19,128,158,4
19,24,137,0.5
19,64,174,0.5
19,172,85,4
19,160,174,0.5
19,88,123,0.5
19,71,161,0.5
19,48,28,0.5
19,62,67,4
19,112,120,4
19,49,52,4
19,89,94,4
19,14,68,0.5
19,171,170,4
19,137,157,4
19,162,2,0.5
19,172,93,0.5
19,144,141,4
19,88,91,0.5
19,153,127,0.5
19,5,113,0.5
19,51,27,4
19,120,112,4
19,28,23,0.5
19,63,77,4
19,149,142,0.5
19,42,28,4
19,113,133,4
19,69,94,0.5
19,92,69,0.5
19,13,14,4
19,159,159,4
19,112,64,0.5
19,56,72,4
19,90,92,4
19,170,147,0.5
19,96,112,4
19,25,48,4
19,114,109,0.5
19,89,59,4
19,41,125,0.5
19,4,38,4
19,5,178,4
19,50,60,4
19,111,169,0.5
19,54,11,0.5
19,146,159,4
19,98,111,4
19,104,151,0.5
19,25,1,0.5
19,125,123,4
19,153,134,4
19,16,5,0.5
19,102,104,4
19,45,36,4
19,91,119,0.5
19,88,179,0.5
19,65,8,0.5
19,35,119,0.5
19,9,130,0.5
19,180,29,0.5
19,90,90,4
19,178,29,4
19,100,9,0.5
19,48,38,0.5
19,97,134,0.5
19,31,22,0.5
19,180,2,0.5
19,73,77,4
19,81,58,4
19,18,16,0.5
19,25,21,4
19,24,94,0.5
19,44,38,4
19,30,19,4
19,154,139,4
19,169,153,4
19,165,3,4
19,23,11,4
19,80,81,4
19,37,23,4
19,5,166,4
19,7,171,0.5
19,52,9,4
19,116,146,4
19,155,160,0.5
19,114,156,0.5
19,70,33,4
19,160,168,4
19,67,133,0.5
19,135,147,4
19,32,14,4
19,148,115,0.5
19,74,59,4
19,54,50,4
19,104,140,4
19,61,57,4
19,115,5,0.5
19,121,9,0.5
19,46,30,0.5
19,135,137,0.5
19,26,37,0.5
19,98,40,0.5
19,31,19,4
19,69,76,4
19,139,5,0.5
19,168,165,4
19,114,125,4
19,70,55,4
19,32,175,0.5
19,121,18,0.5
19,32,175,0.5
19,147,151,4
19,18,26,0.5
19,167,10,0.5
19,111,3,0.5
19,61,38,4
19,76,31,4
19,66,159,0.5
19,38,161,4
19,154,38,0.5
19,162,170,0.5
19,101,108,4
19,4,171,4
19,93,108,4
19,38,45,4
19,168,156,4
19,170,149,4
19,23,172,0.5
19,133,1,0.5
19,104,19,0.5
19,136,111,4
19,97,107,4
19,104,118,4
19,69,81,4
19,58,76,4
19,135,26,0.5
19,68,7,0.5
19,100,98,4
19,145,99,4
19,89,85,4
19,29,35,4
19,45,157,0.5
19,48,51,4
19,7,36,4
19,113,133,4
19,79,42,0.5
19,146,119,0.5
19,143,112,4
19,49,103,0.5
19,41,37,4
19,16,4,0.5
19,34,2,0.5
19,159,167,4
19,133,155,4
19,78,90,4
19,173,157,4
19,156,172,4
19,13,34,4
19,133,147,4
19,14,96,0.5
19,152,153,0.5
19,177,177,4
19,131,132,4
19,119,108,4
19,73,101,0.5
19,29,43,4
19,168,158,4
19,9,32,0.5
19,170,52,0.5
19,113,109,4
19,4,170,4
19,6,1,4
19,157,165,0.5
19,180,153,0.5
19,3,168,4
19,131,151,4
19,156,156,4
19,83,143,0.5
19,153,162,0.5
19,178,71,0.5
19,156,0,4
19,42,115,0.5
19,49,94,0.5
19,9,77,0.5
19,35,70,0.5
19,28,49,0.5
19,21,32,4
19,135,127,4
19,44,174,0.5
19,42,49,0.5
19,12,4,4
19,141,43,0.5
19,141,125,4
19,44,73,4
19,99,26,0.5
19,173,178,4
19,131,161,0.5
19,34,25,0.5
19,34,30,4
19,160,151,4
19,114,134,4
19,173,176,4
19,86,157,0.5
19,84,74,4
19,175,178,4
19,179,20,0.5
19,111,129,0.5
19,32,106,0.5
19,166,31,4
19,20,15,4
19,3,10,4
19,30,122,0.5
19,62,48,4
19,47,37,4
19,173,173,4
19,45,126,0.5
19,122,114,4
19,14,55,4
19,47,127,0.5
19,110,167,0.5
19,78,56,0.5
19,44,94,0.5
19,125,157,4
19,7,18,4
19,60,7,0.5
19,62,142,0.5
19,8,2,4
19,51,33,4
19,3,1,4
19,102,174,0.5
19,49,65,0.5
19,139,164,4
19,174,143,4
19,148,125,4
19,152,135,0.5
19,142,101,0.5
19,112,92,0.5
19,8,71,0.5
19,133,134,4
19,111,174,0.5
19,20,40,4
19,69,147,0.5
19,22,22,4
19,4,24,4
19,9,179,0.5
19,24,18,4
19,110,121,4
19,174,173,4
19,145,163,0.5
19,84,81,4
19,4,93,0.5
19,162,0,0.5
19,106,145,0.5
19,174,2,0.5
19,100,130,4
19,71,130,0.5
19,69,58,4
19,1,18,4
19,60,152,0.5
19,74,89,4
19,3,172,4
19,120,117,4
19,90,113,0.5
19,45,89,0.5
19,17,25,4
19,8,9,4
19,70,12,0.5
19,92,113,4
19,66,61,4
19,107,92,0.5
19,21,19,0.5
19,157,153,4
19,79,62,4
19,35,26,0.5
19,177,148,4
19,50,155,0.5
19,137,158,4
19,128,142,0.5
19,121,136,4
19,70,54,4
19,33,123,0.5
19,94,128,0.5
19,36,28,0.5
19,39,25,0.5
19,80,78,4
19,56,160,0.5
19,87,150,0.5
19,68,34,0.5
19,179,171,4
19,134,131,4
19,24,1,0.5
19,32,158,0.5
19,156,174,4
19,164,165,0.5
19,73,128,0.5
19,110,87,0.5
19,170,156,0.5
19,73,90,4
19,58,77,4
19,81,68,0.5
19,166,145,0.5
19,65,47,4
19,57,66,4
19,73,77,0.5
19,5,36,4
19,124,130,4
19,104,128,4
19,2,8,4
19,151,147,4
19,49,68,4
19,69,9,0.5
19,115,139,4
19,80,68,4
19,79,96,4
19,48,141,0.5
19,59,11,4
19,128,99,4
19,44,43,4
19,9,108,0.5
19,148,86,4
19,3,2,0.5
19,12,34,0.5
19,152,154,0.5
19,39,135,0.5
19,29,25,4
19,131,59,0.5
19,78,58,4
19,70,159,0.5
19,123,128,4
19,74,139,0.5
19,74,116,0.5
19,82,174,0.5
19,9,28,0.5
19,27,113,0.5
19,58,89,0.5
19,11,11,4
19,108,3,0.5
19,72,45,4
19,30,48,4
19,119,98,0.5
19,159,9,0.5
19,149,139,0.5
19,27,48,4
19,176,7,4
19,162,77,0.5
19,14,49,0.5
19,160,146,4
19,71,119,0.5
19,89,167,0.5
19,7,27,4
19,37,9,4
19,44,66,0.5
19,73,81,4
19,8,8,0.5
19,41,37,4
19,176,6,4
19,155,173,4
19,84,118,4
19,102,100,0.5
19,109,111,0.5
19,23,173,0.5
19,80,87,4
19,64,64,4
19,20,110,0.5
19,101,107,4
19,76,80,4
19,160,139,0.5
19,56,29,4
19,72,18,0.5
19,148,130,4
19,150,153,4
19,98,111,4
19,88,82,4
19,58,69,4
19,64,66,0.5
19,53,163,0.5
19,85,90,4
19,64,27,0.5
20,56,98.5,0.5
20,64,78.75,0.5
20,2,16.5,0.5
20,13,21.5,4
20,23,41.5,4
20,87,90.75,4
20,59,61.75,0.5
20,81,101,0.5
20,113,107.25,4
20,125,118.75,0.5
20,160,144,0.5
20,42,44,0.5
20,155,130.25,4
20,17,28.25,0.5
20,70,66,4
20,79,95.5,0.5
20,43,46,0.5
20,125,130.75,4
20,119,124.25,4
20,43,38,0.5
20,64,72.75,4
20,157,142,4
20,58,54.25,4
20,127,133.5,0.5
20,164,147.75,4
20,52,48.75,4
20,24,15.25,4
20,47,59.75,0.5
20,110,111.5,4
20,8,147,0.5
20,95,120.5,4
20,37,39.75,4
20,24,50,0.5
20,169,152.75,4
20,58,66.75,4
20,133,125,0.5
20,81,67.5,4
20,129,132.25,0.5
20,161,147.25,0.5
20,9,48.5,0.5
20,113,122,0.5
20,37,46.75,4
20,175,165.25,0.5
20,165,148,4
20,24,39,0.5
20,76,144,0.5
20,158,137,4
20,162,153.25,4
20,64,61.75,4
20,73,44,0.5
20,131,132.25,0.5
20,17,30.25,4
20,73,76.75,0.5
20,36,38,4
20,69,65.75,4
20,155,140.5,4
20,145,126.5,4
20,137,136.5,0.5
20,77,70.25,0.5
20,48,60.25,0.5
20,108,72.75,0.5
20,169,131.5,0.5
20,96,57,0.5
20,48,68,0.5
20,49,46.25,4
20,111,126.5,4
20,81,68.5,0.5
20,65,73,4
20,115,121.75,0.5
20,76,63.25,0.5
20,96,96.5,0.5
20,103,111.75,4
20,123,132,0.5
20,146,126.75,0.5
20,139,134,4
20,95,104.5,0.5
20,172,159,4
20,7,18,0.5
20,144,154.5,0.5
20,155,148.5,4
20,133,74,0.5
20,14,18,4
20,95,131.5,0.5
20,69,61.75,0.5
20,2,16.75,0.5
20,94,95.25,4
20,6,13.25,0.5
20,118,100,0.5
20,134,136,4
20,64,53,4
20,164,159,0.5
20,100,108,4
20,82,55.5,0.5
20,137,121.5,4
20,152,134,4
20,91,81.5,4
20,103,123.5,4
20,144,120,0.5
20,107,126,4
20,177,155,0.5
20,43,47.75,0.5
20,81,66.5,4
20,53,47.75,0.5
20,173,161.25,4
20,73,63.75,4
20,27,29.5,4
20,113,86,0.5
20,72,47.5,0.5
20,28,48.25,4
20,29,45,4
20,147,132.5,0.5
20,158,145.25,4
20,113,3.5,0.5
20,33,114,4
20,5,28.5,0.5
20,39,31,0.5
20,14,24.25,4
20,74,59.75,4
20,1,163,4
20,137,136.75,4
20,5,24.25,0.5
20,136,125.75,4
20,100,74.25,0.5
20,111,109,4
20,93,84.75,0.5
20,112,99,4
20,6,33.25,0.5
20,148,148.75,4
20,64,61,0.5
20,22,48,4
20,131,121,4
20,51,57.5,4
20,73,72.5,4
20,84,61.25,4
20,133,114.75,4
20,53,55.75,0.5
20,134,127,4
20,117,119,4
20,61,67.5,0.5
20,118,127,4
20,84,76.75,4
20,106,120,0.5
20,129,118.75,0.5
20,123,121.25,4
20,146,135.5,4
20,8,166.25,0.5
20,179,168.75,4
20,9,10.25,4
20,71,64.5,4
20,50,36.5,4
20,3,6.5,0.5
20,150,146.5,4
20,102,105.5,0.5
20,137,153.25,0.5
20,28,44.75,0.5
20,10,17.5,4
20,163,138,4
20,131,149.25,0.5
20,97,109.25,4
20,1,25.5,0.5
20,34,44,4
20,93,54.5,0.5
20,57,46.5,0.5
20,46,42.5,4
20,14,15.25,4
20,82,81.75,0.5
20,44,34.5,4
20,27,62,0.5
20,113,143,0.5
20,1,152,4
20,169,167,4
20,153,151.75,0.5
20,81,39,0.5
20,98,113,4
20,177,169.75,4
20,60,59,4
20,99,102,0.5
20,135,113.5,0.5
20,97,70,0.5
20,155,137.75,4
20,55,46,0.5
20,23,18.75,4
20,82,74,4
20,15,49.25,0.5
20,166,140,0.5
20,99,76,0.5
20,138,122.25,4
20,41,47.25,4
20,54,80,4
20,142,128.25,0.5
20,146,152,4
20,177,164.75,0.5
20,176,24,4
20,12,36.5,0.5
20,100,108,4
20,80,73.25,4
20,122,114,4
20,39,41,4
20,150,137.75,0.5
20,9,19,4
20,105,85,4
20,92,109.25,4
20,73,57.25,4
20,100,109,0.5
20,112,103.5,4
20,22,34.75,4
20,140,140.5,4
20,147,134.5,0.5
20,158,145.75,0.5
20,46,63.25,4
20,162,147,4
20,117,118.5,4
20,123,121.5,0.5
20,35,47,0.5
20,109,107.75,4
20,17,39.5,4
20,175,173.5,0.5
20,57,45,0.5
20,100,101.25,0.5
20,142,121,0.5
20,140,129.25,4
20,104,119.75,4
20,88,70.5,4
20,79,67,4
20,8,28,0.5
20,151,142.5,0.5
20,135,125.5,4
20,42,44.5,4
20,20,32.75,4
20,69,37.25,4
20,116,123.25,4
20,98,96.5,4
20,12,32.75,4
20,35,43,4
20,150,145.75,0.5
20,112,115.75,0.5
20,166,139.75,0.5
20,35,32.25,0.5
20,104,118.75,4
20,79,68,4
20,66,65.5,4
20,167,156.75,0.5
20,176,149,0.5
20,94,113.25,0.5
20,56,65.75,0.5
20,44,55,4
20,86,87,4
20,151,145.75,4
20,119,145,4
20,148,150,4
20,130,127.5,4
20,139,139.25,4
20,101,109.75,0.5
20,170,152.75,4
20,48,60.75,0.5
20,47,55,4
20,39,57,4
20,82,74.75,0.5
20,86,64.75,0.5
20,13,22.5,0.5
20,114,102,0.5
20,100,104.5,4
20,142,133.75,0.5
20,40,49,0.5
20,90,95.75,0.5
20,55,47.75,0.5
20,41,48,4
20,7,9.75,4
20,132,159.75,0.5
20,174,143,0.5
20,12,14.75,0.5
20,96,122,0.5
20,8,21.25,4
20,103,127.25,4
20,33,44,4
20,46,40,4
20,51,49.5,0.5
20,110,125,4
20,54,31,4
20,96,129.5,0.5
20,99,83,4
20,98,111.75,0.5
20,14,25.5,0.5
20,163,146,0.5
20,89,63.5,0.5
20,130,151.5,0.5
20,136,148,4
20,3,9.25,4
20,53,26.5,0.5
20,76,47.25,0.5
20,99,137.5,0.5
20,34,37,4
20,154,123.75,0.5
20,171,147,0.5
20,66,47,0.5
20,103,120.75,0.5
20,47,50.25,4
20,29,47.25,0.5
20,146,138,0.5
20,163,143.25,0.5
20,112,131,4
20,123,107,0.5
20,8,7.5,4
20,62,51.75,0.5
20,84,104.5,0.5
20,75,73.75,0.5
20,104,99.5,0.5
20,74,69.25,0.5
20,22,20.75,0.5
20,114,113.5,4
20,149,134.75,4
20,150,130,4
20,85,78.75,4
20,32,36.5,0.5
20,122,126.75,4
20,133,131.25,0.5
20,96,93.25,4
20,44,53.5,0.5
20,169,165,4
20,2,23.25,4
20,142,130,4
20,34,35.5,0.5
20,23,84,0.5
20,63,19.25,0.5
20,58,58.5,0.5
20,161,138.25,4
20,130,117,0.5
20,26,36.25,0.5
20,125,140.75,4
20,80,72.25,0.5
20,7,15.5,0.5
20,141,142.25,4
20,110,122.25,0.5
20,86,73.5,4
20,13,16.25,4
20,177,25.25,0.5
20,149,153,0.5
20,7,18.75,4
20,117,119.75,4
20,114,117,4
20,33,34,4
20,120,111.5,4
20,30,43.5,0.5
20,50,60.5,4
20,12,16.25,0.5
20,178,9.25,0.5
20,71,52.25,4
20,163,142,0.5
20,51,58.75,4
20,5,27.5,0.5
20,23,26,4
20,134,141.25,0.5
20,59,47.5,4
20,62,66.25,0.5
20,61,63.5,0.5
20,24,28.75,4
20,149,133,0.5
20,93,110.75,4
20,175,167.75,4
20,72,67.25,4
20,151,149.5,0.5
20,162,151.25,0.5
20,137,153.75,0.5
20,112,114.75,4
20,85,75.5,4
20,154,157.25,0.5
20,33,26.25,4
20,63,43,4
20,98,108.25,0.5
20,139,156.75,4
20,154,147.5,4
20,1,154,0.5
20,176,154,4
20,83,69.75,4
20,120,145.5,0.5
20,117,114,0.5
20,52,49.75,4
20,45,47.25,0.5
20,143,133.75,0.5
20,50,37.25,0.5
20,144,133.25,0.5
20,38,29.5,0.5
20,76,47.25,0.5
20,58,67.75,4
20,159,150.25,4
20,41,31,0.5
20,134,132.5,0.5
20,116,120.5,4
20,3,14,0.5
20,127,130.25,0.5
20,105,99,4
20,107,117.75,0.5
20,157,168,0.5
20,151,153.5,4
20,15,10.5,0.5
20,109,119.75,4
20,27,35.25,0.5
20,166,154.5,0.5
20,1,12.5,4
20,111,117.75,4
20,8,42.25,4
20,108,129,0.5
20,144,146,4
20,153,136.5,4
20,14,24,0.5
20,90,65.75,4
20,134,138.5,4
20,151,143,4
20,176,161.5,0.5
20,179,160.75,4
20,179,7.5,0.5
20,73,69.75,4
20,129,126.75,4
20,101,112.75,4
20,132,120.75,0.5
20,121,121.25,4
20,148,134.5,4
20,13,30.5,0.5
20,143,150.75,4
20,71,46,0.5
20,54,51,4
20,176,153.25,4
20,135,150,0.5
20,76,46.25,0.5
20,162,157.25,0.5
20,46,56.75,4
20,106,111.75,4
20,158,147,4
20,165,133,0.5
20,12,52.5,4
20,27,26.75,0.5
20,64,74.75,0.5
20,18,39,0.5
20,177,15,0.5
20,72,75.5,4
20,39,43.5,0.5
20,3,9,4
20,56,51.5,4
20,79,67.25,4
20,55,68.75,0.5
20,152,154.25,0.5
20,173,151,0.5
20,64,60.75,0.5
20,8,9,0.5
20,21,11.75,0.5
20,150,160,0.5
20,26,36.75,4
20,67,53.75,4
20,60,67,0.5
20,126,95,0.5
20,173,23,0.5
20,53,53,4
20,144,137.75,4
20,125,133,0.5
20,97,104,4
20,38,54.25,0.5
20,81,57.75,0.5
20,59,73.5,4
20,47,65.25,4
20,159,139.25,4
20,175,143.5,0.5
20,69,61,4
20,158,139.5,0.5
20,74,73.25,4
20,107,118.75,0.5
20,164,163,4
20,176,175.25,0.5
20,7,19.5,4
20,165,5.75,0.5
20,160,159.75,4
20,34,44.5,0.5
20,64,40.75,4
20,179,5.75,0.5
20,49,32,0.5
20,112,96.25,0.5
20,20,38.75,4
20,75,71,4
20,73,62.25,0.5
20,74,67.5,4
20,99,127.5,4
20,171,168.5,4
20,146,154.25,0.5
20,20,29.75,4
20,112,117.75,4
20,125,107.5,0.5
20,51,44.75,4
20,71,75.25,4
20,36,48.5,4
20,68,45,4
20,8,22,0.5
20,168,169,4
20,8,5,0.5
20,174,166.25,4
20,71,27.25,0.5
20,163,173,0.5
20,28,32,0.5
20,125,110,0.5
20,119,132.5,0.5
20,86,67.75,4
20,180,12.25,4
20,142,143.25,4
20,106,105.75,0.5
20,120,109.5,4
20,79,75,4
20,153,148,4
20,138,162,0.5
20,122,106,4
20,111,134.75,4
20,20,19,4
20,87,99.75,0.5
20,150,168.75,0.5
20,19,51,0.5
20,175,156.5,4
20,24,27.5,4
20,59,59.75,4
20,100,86,4
20,13,19.75,0.5
20,128,137,4
20,19,28.5,0.5
20,59,52.5,4
20,150,136.75,0.5
20,135,154.25,0.5
20,44,33.5,0.5
20,172,145.75,0.5
20,2,97,0.5
20,114,123,4
20,79,59.5,4
20,5,155.5,4
20,145,147,0.5
20,63,56.25,4
20,164,136.25,4
20,108,133,0.5
20,56,57.25,4
20,139,135.5,4
20,137,135,4
20,54,58.25,0.5
20,117,123.25,0.5
20,156,136.75,4
20,119,152.25,0.5
20,22,21.5,0.5
20,8,37.25,0.5
20,11,26.5,0.5
20,70,15,0.5
20,56,47,0.5
20,89,111.25,0.5
20,50,57,4
20,178,161.75,4
20,37,35.75,4
20,102,104,0.5
20,31,28.25,4
20,92,112.5,0.5
20,176,17,0.5
20,159,160.25,0.5
20,27,28.75,4
20,31,22.25,4
20,174,157.75,0.5
20,26,36.25,4
20,60,50,4
20,74,82.5,0.5
20,18,21,0.5
20,97,101,4
20,70,65.75,0.5
20,95,56,0.5
20,74,77.25,0.5
20,138,128,4
20,179,11.25,4
20,151,160,4
20,85,79.5,4
20,126,140.75,0.5
20,125,145,0.5
20,77,75.25,0.5
20,72,82,0.5
20,170,16.25,0.5
20,48,20.5,0.5
20,134,141.25,0.5
20,146,146.5,0.5
20,161,132.25,4
20,144,151,4
20,140,132.75,0.5
20,150,145.25,0.5
20,161,145,4
20,129,114.5,4
20,55,51.75,0.5
20,131,150,0.5
20,155,132,0.5
20,173,9,0.5
20,173,16.75,0.5
20,167,149.5,0.5
20,115,132,0.5
20,173,134.75,0.5
20,149,145.75,4
20,7,24,0.5
20,57,66,0.5
20,97,109.25,4
20,88,68,0.5
20,63,63.75,0.5
20,145,124,4
20,16,11,4
20,74,74.25,0.5
20,54,46.5,4
20,117,115,4
20,177,167.5,4
20,133,150.5,4
20,144,142,0.5
20,43,63,0.5
20,15,46.5,0.5
20,28,39,4
20,135,133,4
20,68,37.75,4
20,128,132,4
20,16,27.25,0.5
20,41,45,4
20,7,6,4
20,143,145,0.5
20,83,79.25,0.5
20,93,74.25,0.5
20,170,14.75,0.5
20,13,22.75,0.5
20,129,135.5,0.5
20,67,50,0.5
20,2,14.75,4
20,108,115.75,4
20,71,75,0.5
20,117,116,0.5
20,26,20,0.5
20,111,124.5,4
20,79,39,4
20,172,31,0.5
20,5,19.25,4
20,105,118,4
20,102,134,4
20,112,112.25,0.5
20,82,74.25,4
20,177,163,4
20,83,36,0.5
20,109,106.25,4
20,107,116,0.5
20,169,19,0.5
20,118,113,4
20,55,43,4
20,42,35,0.5
20,128,149,0.5
20,16,26.75,0.5
20,180,153.5,0.5
20,115,155,0.5
20,113,137.5,4
20,34,42.75,4
20,93,99,4
20,136,143.25,4
20,133,123,4
20,46,38,0.5
20,135,140,4
20,38,49,4
20,32,45.75,4
20,138,130,4
20,33,50.75,0.5
20,43,51,0.5
20,131,134.5,4
20,162,156.25,4
20,27,33.5,0.5
20,109,133.75,0.5
20,128,147.5,4
20,90,86,4
20,129,149.25,0.5
20,100,105,4
20,67,65.25,0.5
20,17,16.25,4
20,84,85.25,4
20,32,53.5,4
20,42,38.5,4
20,50,64,4
20,45,44.5,4
20,98,97,0.5
20,51,45,4
20,116,137,4
20,104,120,4
20,68,125,4
20,64,58,4
20,65,69.5,4
20,15,9.75,0.5
20,26,42.5,4
20,26,32,0.5
20,82,107.5,0.5
20,139,133,0.5
20,8,13.75,4
20,130,151.5,0.5
20,107,120.25,0.5
20,70,67.75,0.5
20,59,28.75,0.5
20,143,152,0.5
20,84,68.5,0.5
20,76,70.25,4
20,8,25,0.5
20,10,27.75,0.5
20,120,134,0.5
20,50,61,0.5
20,110,134,4
20,152,147.25,4
20,84,67.75,4
20,100,62.75,0.5
20,114,105.25,0.5
20,111,84.25,0.5
20,149,140.25,0.5
20,88,77,0.5
20,33,21.25,0.5
20,144,147.25,4
20,77,62,0.5
20,94,101.5,0.5
20,104,75.25,0.5
20,68,72.5,4
20,52,75.75,0.5
20,170,48.5,0.5
20,61,44.75,0.5
20,35,68.5,0.5
20,68,46.5,4
20,137,133,0.5
20,124,113.75,4
20,26,37.25,4
20,126,121.25,0.5
20,170,157.25,4
20,20,40.5,0.5
20,159,145.25,0.5
20,127,123,4
20,28,33,4
20,14,24,4
20,148,142.5,4
20,115,145.75,4
20,12,61,0.5
20,174,164,4
20,163,158.25,0.5
20,115,141,0.5
20,155,160.75,4
20,78,71,4
20,58,45.5,0.5
20,64,68.5,4
20,5,22.5,4
20,135,129.5,0.5
20,79,74,0.5
20,80,66,4
20,95,107.75,4
20,116,125,0.5
20,93,82.25,4
20,6,174,4
20,70,79,4
20,37,17.25,0.5
20,40,30,4
20,146,141.5,0.5
20,142,145,4
20,7,44.75,0.5
20,80,52,0.5
20,33,43,0.5
20,51,37,0.5
20,28,49.25,4
20,5,159.5,0.5
20,156,153,4
20,145,119,4
20,130,136.25,0.5
20,177,168.25,4
20,153,154,0.5
20,44,27,0.5
20,101,119.75,4
20,69,108,0.5
20,46,40,0.5
20,168,153.25,0.5
20,102,106.25,4
20,65,40,0.5
20,6,18,0.5
20,142,137,4
20,96,97.25,4
20,39,41,0.5
20,146,136,0.5
20,101,107.5,4
20,109,114.25,0.5
20,81,77,4
20,70,71.75,0.5
20,98,112.5,0.5
20,83,74,4
20,112,25.25,0.5
20,68,59,4
20,86,64,4
20,86,70.75,4
20,15,15.75,4
20,21,26,4
20,85,85,4
20,46,44.75,4
20,62,54,0.5
20,173,152.75,4
20,53,38.75,4
20,114,117.25,4
20,38,49.75,4
20,179,42,0.5
20,119,132.75,4
20,76,78,0.5
20,176,168.5,4
20,141,149.75,0.5
20,27,24.75,4
20,53,23.75,0.5
20,66,60.5,4
20,96,111.25,0.5
20,156,149,0.5
20,10,47,0.5
20,69,56.75,4
20,93,96,0.5
20,74,61.75,4
20,166,145.25,0.5
20,122,152.75,0.5
20,12,24.25,4
20,106,132,4
20,138,138.25,4
20,144,153.25,4
20,122,149.25,4
20,39,34.5,4
20,68,31,0.5
20,33,38.25,0.5
20,83,77.5,4
20,112,159,0.5
20,98,116,0.5
20,63,59,0.5
20,135,122.25,4
20,125,128.5,0.5
20,147,145.5,0.5
